p cnf 18183 37713
1 2 3 4 6 9 14 22 35 56 90 145 234 0
2 1 5 7 10 15 23 36 57 91 146 235 0
3 1 8 11 16 24 37 58 92 147 236 0
4 5 1 12 17 25 38 59 93 148 237 0
5 4 2 13 18 26 39 60 94 149 238 0
6 7 8 1 19 27 40 61 95 150 239 0
7 6 2 20 28 41 62 96 151 240 0
8 6 3 21 29 42 63 97 152 241 0
9 10 11 12 1 30 43 64 98 153 242 0
10 9 13 2 31 44 65 99 154 243 0
11 9 3 32 45 66 100 155 244 0
12 13 9 4 33 46 67 101 156 245 0
13 12 10 5 34 47 68 102 157 246 0
14 15 16 17 19 1 48 69 103 158 247 0
15 14 18 20 2 49 70 104 159 248 0
16 14 21 3 50 71 105 160 249 0
17 18 14 4 51 72 106 161 250 0
18 17 15 5 52 73 107 162 251 0
19 20 21 14 6 53 74 108 163 252 0
20 19 15 7 54 75 109 164 253 0
21 19 16 8 55 76 110 165 254 0
22 23 24 25 27 30 1 77 111 166 255 0
23 22 26 28 31 2 78 112 167 256 0
24 22 29 32 3 79 113 168 257 0
25 26 22 33 4 80 114 169 258 0
26 25 23 34 5 81 115 170 259 0
27 28 29 22 6 82 116 171 260 0
28 27 23 7 83 117 172 261 0
29 27 24 8 84 118 173 262 0
30 31 32 33 22 9 85 119 174 263 0
31 30 34 23 10 86 120 175 264 0
32 30 24 11 87 121 176 265 0
33 34 30 25 12 88 122 177 266 0
34 33 31 26 13 89 123 178 267 0
35 36 37 38 40 43 48 1 124 179 268 0
36 35 39 41 44 49 2 125 180 269 0
37 35 42 45 50 3 126 181 270 0
38 39 35 46 51 4 127 182 271 0
39 38 36 47 52 5 128 183 272 0
40 41 42 35 53 6 129 184 273 0
41 40 36 54 7 130 185 274 0
42 40 37 55 8 131 186 275 0
43 44 45 46 35 9 132 187 276 0
44 43 47 36 10 133 188 277 0
45 43 37 11 134 189 278 0
46 47 43 38 12 135 190 279 0
47 46 44 39 13 136 191 280 0
48 49 50 51 53 35 14 137 192 281 0
49 48 52 54 36 15 138 193 282 0
50 48 55 37 16 139 194 283 0
51 52 48 38 17 140 195 284 0
52 51 49 39 18 141 196 285 0
53 54 55 48 40 19 142 197 286 0
54 53 49 41 20 143 198 287 0
55 53 50 42 21 144 199 288 0
56 57 58 59 61 64 69 77 1 200 289 0
57 56 60 62 65 70 78 2 201 290 0
58 56 63 66 71 79 3 202 291 0
59 60 56 67 72 80 4 203 292 0
60 59 57 68 73 81 5 204 293 0
61 62 63 56 74 82 6 205 294 0
62 61 57 75 83 7 206 295 0
63 61 58 76 84 8 207 296 0
64 65 66 67 56 85 9 208 297 0
65 64 68 57 86 10 209 298 0
66 64 58 87 11 210 299 0
67 68 64 59 88 12 211 300 0
68 67 65 60 89 13 212 301 0
69 70 71 72 74 56 14 213 302 0
70 69 73 75 57 15 214 303 0
71 69 76 58 16 215 304 0
72 73 69 59 17 216 305 0
73 72 70 60 18 217 306 0
74 75 76 69 61 19 218 307 0
75 74 70 62 20 219 308 0
76 74 71 63 21 220 309 0
77 78 79 80 82 85 56 22 221 310 0
78 77 81 83 86 57 23 222 311 0
79 77 84 87 58 24 223 312 0
80 81 77 88 59 25 224 313 0
81 80 78 89 60 26 225 314 0
82 83 84 77 61 27 226 315 0
83 82 78 62 28 227 316 0
84 82 79 63 29 228 317 0
85 86 87 88 77 64 30 229 318 0
86 85 89 78 65 31 230 319 0
87 85 79 66 32 231 320 0
88 89 85 80 67 33 232 321 0
89 88 86 81 68 34 233 322 0
90 91 92 93 95 98 103 111 124 1 323 0
91 90 94 96 99 104 112 125 2 324 0
92 90 97 100 105 113 126 3 325 0
93 94 90 101 106 114 127 4 326 0
94 93 91 102 107 115 128 5 327 0
95 96 97 90 108 116 129 6 328 0
96 95 91 109 117 130 7 329 0
97 95 92 110 118 131 8 330 0
98 99 100 101 90 119 132 9 331 0
99 98 102 91 120 133 10 332 0
100 98 92 121 134 11 333 0
101 102 98 93 122 135 12 334 0
102 101 99 94 123 136 13 335 0
103 104 105 106 108 90 137 14 336 0
104 103 107 109 91 138 15 337 0
105 103 110 92 139 16 338 0
106 107 103 93 140 17 339 0
107 106 104 94 141 18 340 0
108 109 110 103 95 142 19 341 0
109 108 104 96 143 20 342 0
110 108 105 97 144 21 343 0
111 112 113 114 116 119 90 22 344 0
112 111 115 117 120 91 23 345 0
113 111 118 121 92 24 346 0
114 115 111 122 93 25 347 0
115 114 112 123 94 26 348 0
116 117 118 111 95 27 349 0
117 116 112 96 28 350 0
118 116 113 97 29 351 0
119 120 121 122 111 98 30 352 0
120 119 123 112 99 31 353 0
121 119 113 100 32 354 0
122 123 119 114 101 33 355 0
123 122 120 115 102 34 356 0
124 125 126 127 129 132 137 90 35 357 0
125 124 128 130 133 138 91 36 358 0
126 124 131 134 139 92 37 359 0
127 128 124 135 140 93 38 360 0
128 127 125 136 141 94 39 361 0
129 130 131 124 142 95 40 362 0
130 129 125 143 96 41 363 0
131 129 126 144 97 42 364 0
132 133 134 135 124 98 43 365 0
133 132 136 125 99 44 366 0
134 132 126 100 45 367 0
135 136 132 127 101 46 368 0
136 135 133 128 102 47 369 0
137 138 139 140 142 124 103 48 370 0
138 137 141 143 125 104 49 371 0
139 137 144 126 105 50 372 0
140 141 137 127 106 51 373 0
141 140 138 128 107 52 374 0
142 143 144 137 129 108 53 375 0
143 142 138 130 109 54 376 0
144 142 139 131 110 55 377 0
145 146 147 148 150 153 158 166 179 200 1 0
146 145 149 151 154 159 167 180 201 2 0
147 145 152 155 160 168 181 202 3 0
148 149 145 156 161 169 182 203 4 0
149 148 146 157 162 170 183 204 5 0
150 151 152 145 163 171 184 205 6 0
151 150 146 164 172 185 206 7 0
152 150 147 165 173 186 207 8 0
153 154 155 156 145 174 187 208 9 0
154 153 157 146 175 188 209 10 0
155 153 147 176 189 210 11 0
156 157 153 148 177 190 211 12 0
157 156 154 149 178 191 212 13 0
158 159 160 161 163 145 192 213 14 0
159 158 162 164 146 193 214 15 0
160 158 165 147 194 215 16 0
161 162 158 148 195 216 17 0
162 161 159 149 196 217 18 0
163 164 165 158 150 197 218 19 0
164 163 159 151 198 219 20 0
165 163 160 152 199 220 21 0
166 167 168 169 171 174 145 221 22 0
167 166 170 172 175 146 222 23 0
168 166 173 176 147 223 24 0
169 170 166 177 148 224 25 0
170 169 167 178 149 225 26 0
171 172 173 166 150 226 27 0
172 171 167 151 227 28 0
173 171 168 152 228 29 0
174 175 176 177 166 153 229 30 0
175 174 178 167 154 230 31 0
176 174 168 155 231 32 0
177 178 174 169 156 232 33 0
178 177 175 170 157 233 34 0
179 180 181 182 184 187 192 145 35 0
180 179 183 185 188 193 146 36 0
181 179 186 189 194 147 37 0
182 183 179 190 195 148 38 0
183 182 180 191 196 149 39 0
184 185 186 179 197 150 40 0
185 184 180 198 151 41 0
186 184 181 199 152 42 0
187 188 189 190 179 153 43 0
188 187 191 180 154 44 0
189 187 181 155 45 0
190 191 187 182 156 46 0
191 190 188 183 157 47 0
192 193 194 195 197 179 158 48 0
193 192 196 198 180 159 49 0
194 192 199 181 160 50 0
195 196 192 182 161 51 0
196 195 193 183 162 52 0
197 198 199 192 184 163 53 0
198 197 193 185 164 54 0
199 197 194 186 165 55 0
200 201 202 203 205 208 213 221 145 56 0
201 200 204 206 209 214 222 146 57 0
202 200 207 210 215 223 147 58 0
203 204 200 211 216 224 148 59 0
204 203 201 212 217 225 149 60 0
205 206 207 200 218 226 150 61 0
206 205 201 219 227 151 62 0
207 205 202 220 228 152 63 0
208 209 210 211 200 229 153 64 0
209 208 212 201 230 154 65 0
210 208 202 231 155 66 0
211 212 208 203 232 156 67 0
212 211 209 204 233 157 68 0
213 214 215 216 218 200 158 69 0
214 213 217 219 201 159 70 0
215 213 220 202 160 71 0
216 217 213 203 161 72 0
217 216 214 204 162 73 0
218 219 220 213 205 163 74 0
219 218 214 206 164 75 0
220 218 215 207 165 76 0
221 222 223 224 226 229 200 166 77 0
222 221 225 227 230 201 167 78 0
223 221 228 231 202 168 79 0
224 225 221 232 203 169 80 0
225 224 222 233 204 170 81 0
226 227 228 221 205 171 82 0
227 226 222 206 172 83 0
228 226 223 207 173 84 0
229 230 231 232 221 208 174 85 0
230 229 233 222 209 175 86 0
231 229 223 210 176 87 0
232 233 229 224 211 177 88 0
233 232 230 225 212 178 89 0
234 235 236 237 239 242 247 255 268 289 323 1 0
235 234 238 240 243 248 256 269 290 324 2 0
236 234 241 244 249 257 270 291 325 3 0
237 238 234 245 250 258 271 292 326 4 0
238 237 235 246 251 259 272 293 327 5 0
239 240 241 234 252 260 273 294 328 6 0
240 239 235 253 261 274 295 329 7 0
241 239 236 254 262 275 296 330 8 0
242 243 244 245 234 263 276 297 331 9 0
243 242 246 235 264 277 298 332 10 0
244 242 236 265 278 299 333 11 0
245 246 242 237 266 279 300 334 12 0
246 245 243 238 267 280 301 335 13 0
247 248 249 250 252 234 281 302 336 14 0
248 247 251 253 235 282 303 337 15 0
249 247 254 236 283 304 338 16 0
250 251 247 237 284 305 339 17 0
251 250 248 238 285 306 340 18 0
252 253 254 247 239 286 307 341 19 0
253 252 248 240 287 308 342 20 0
254 252 249 241 288 309 343 21 0
255 256 257 258 260 263 234 310 344 22 0
256 255 259 261 264 235 311 345 23 0
257 255 262 265 236 312 346 24 0
258 259 255 266 237 313 347 25 0
259 258 256 267 238 314 348 26 0
260 261 262 255 239 315 349 27 0
261 260 256 240 316 350 28 0
262 260 257 241 317 351 29 0
263 264 265 266 255 242 318 352 30 0
264 263 267 256 243 319 353 31 0
265 263 257 244 320 354 32 0
266 267 263 258 245 321 355 33 0
267 266 264 259 246 322 356 34 0
268 269 270 271 273 276 281 234 357 35 0
269 268 272 274 277 282 235 358 36 0
270 268 275 278 283 236 359 37 0
271 272 268 279 284 237 360 38 0
272 271 269 280 285 238 361 39 0
273 274 275 268 286 239 362 40 0
274 273 269 287 240 363 41 0
275 273 270 288 241 364 42 0
276 277 278 279 268 242 365 43 0
277 276 280 269 243 366 44 0
278 276 270 244 367 45 0
279 280 276 271 245 368 46 0
280 279 277 272 246 369 47 0
281 282 283 284 286 268 247 370 48 0
282 281 285 287 269 248 371 49 0
283 281 288 270 249 372 50 0
284 285 281 271 250 373 51 0
285 284 282 272 251 374 52 0
286 287 288 281 273 252 375 53 0
287 286 282 274 253 376 54 0
288 286 283 275 254 377 55 0
289 290 291 292 294 297 302 310 234 56 0
290 289 293 295 298 303 311 235 57 0
291 289 296 299 304 312 236 58 0
292 293 289 300 305 313 237 59 0
293 292 290 301 306 314 238 60 0
294 295 296 289 307 315 239 61 0
295 294 290 308 316 240 62 0
296 294 291 309 317 241 63 0
297 298 299 300 289 318 242 64 0
298 297 301 290 319 243 65 0
299 297 291 320 244 66 0
300 301 297 292 321 245 67 0
301 300 298 293 322 246 68 0
302 303 304 305 307 289 247 69 0
303 302 306 308 290 248 70 0
304 302 309 291 249 71 0
305 306 302 292 250 72 0
306 305 303 293 251 73 0
307 308 309 302 294 252 74 0
308 307 303 295 253 75 0
309 307 304 296 254 76 0
310 311 312 313 315 318 289 255 77 0
311 310 314 316 319 290 256 78 0
312 310 317 320 291 257 79 0
313 314 310 321 292 258 80 0
314 313 311 322 293 259 81 0
315 316 317 310 294 260 82 0
316 315 311 295 261 83 0
317 315 312 296 262 84 0
318 319 320 321 310 297 263 85 0
319 318 322 311 298 264 86 0
320 318 312 299 265 87 0
321 322 318 313 300 266 88 0
322 321 319 314 301 267 89 0
323 324 325 326 328 331 336 344 357 234 90 0
324 323 327 329 332 337 345 358 235 91 0
325 323 330 333 338 346 359 236 92 0
326 327 323 334 339 347 360 237 93 0
327 326 324 335 340 348 361 238 94 0
328 329 330 323 341 349 362 239 95 0
329 328 324 342 350 363 240 96 0
330 328 325 343 351 364 241 97 0
331 332 333 334 323 352 365 242 98 0
332 331 335 324 353 366 243 99 0
333 331 325 354 367 244 100 0
334 335 331 326 355 368 245 101 0
335 334 332 327 356 369 246 102 0
336 337 338 339 341 323 370 247 103 0
337 336 340 342 324 371 248 104 0
338 336 343 325 372 249 105 0
339 340 336 326 373 250 106 0
340 339 337 327 374 251 107 0
341 342 343 336 328 375 252 108 0
342 341 337 329 376 253 109 0
343 341 338 330 377 254 110 0
344 345 346 347 349 352 323 255 111 0
345 344 348 350 353 324 256 112 0
346 344 351 354 325 257 113 0
347 348 344 355 326 258 114 0
348 347 345 356 327 259 115 0
349 350 351 344 328 260 116 0
350 349 345 329 261 117 0
351 349 346 330 262 118 0
352 353 354 355 344 331 263 119 0
353 352 356 345 332 264 120 0
354 352 346 333 265 121 0
355 356 352 347 334 266 122 0
356 355 353 348 335 267 123 0
357 358 359 360 362 365 370 323 268 124 0
358 357 361 363 366 371 324 269 125 0
359 357 364 367 372 325 270 126 0
360 361 357 368 373 326 271 127 0
361 360 358 369 374 327 272 128 0
362 363 364 357 375 328 273 129 0
363 362 358 376 329 274 130 0
364 362 359 377 330 275 131 0
365 366 367 368 357 331 276 132 0
366 365 369 358 332 277 133 0
367 365 359 333 278 134 0
368 369 365 360 334 279 135 0
369 368 366 361 335 280 136 0
370 371 372 373 375 357 336 281 137 0
371 370 374 376 358 337 282 138 0
372 370 377 359 338 283 139 0
373 374 370 360 339 284 140 0
374 373 371 361 340 285 141 0
375 376 377 370 362 341 286 142 0
376 375 371 363 342 287 143 0
377 375 372 364 343 288 144 0
-1 378 0
-378 379 0
-2 -378 380 0
-380 381 0
-3 -380 382 0
-382 383 0
-4 -382 384 0
-384 385 0
-5 -384 386 0
-386 387 0
-6 -386 388 0
-388 389 0
-7 -388 390 0
-390 391 0
-8 -390 392 0
-392 393 0
-9 -392 394 0
-394 395 0
-10 -394 396 0
-396 397 0
-11 -396 398 0
-398 399 0
-12 -398 400 0
-400 401 0
-13 -400 402 0
-402 403 0
-14 -402 404 0
-404 405 0
-15 -404 406 0
-406 407 0
-16 -406 408 0
-408 409 0
-17 -408 410 0
-410 411 0
-18 -410 412 0
-412 413 0
-19 -412 414 0
-414 415 0
-20 -414 416 0
-416 417 0
-21 -416 418 0
-418 419 0
-22 -418 420 0
-420 421 0
-23 -420 422 0
-422 423 0
-24 -422 424 0
-424 425 0
-25 -424 426 0
-426 427 0
-26 -426 428 0
-428 429 0
-27 -428 430 0
-430 431 0
-28 -430 432 0
-432 433 0
-29 -432 434 0
-434 435 0
-30 -434 436 0
-436 437 0
-31 -436 438 0
-438 439 0
-32 -438 440 0
-440 441 0
-33 -440 442 0
-442 443 0
-34 -442 444 0
-444 445 0
-35 -444 446 0
-446 447 0
-36 -446 448 0
-448 449 0
-37 -448 450 0
-450 451 0
-38 -450 452 0
-452 453 0
-39 -452 454 0
-454 455 0
-40 -454 456 0
-456 457 0
-41 -456 458 0
-458 459 0
-42 -458 460 0
-460 461 0
-43 -460 462 0
-462 463 0
-44 -462 464 0
-464 465 0
-45 -464 466 0
-466 467 0
-46 -466 468 0
-468 469 0
-47 -468 470 0
-470 471 0
-48 -470 472 0
-472 473 0
-49 -472 474 0
-474 475 0
-50 -474 476 0
-476 477 0
-51 -476 478 0
-478 479 0
-52 -478 480 0
-480 481 0
-53 -480 482 0
-482 483 0
-54 -482 484 0
-484 485 0
-55 -484 0
-2 379 0
-379 486 0
-3 -379 381 0
-381 487 0
-4 -381 383 0
-383 488 0
-5 -383 385 0
-385 489 0
-6 -385 387 0
-387 490 0
-7 -387 389 0
-389 491 0
-8 -389 391 0
-391 492 0
-9 -391 393 0
-393 493 0
-10 -393 395 0
-395 494 0
-11 -395 397 0
-397 495 0
-12 -397 399 0
-399 496 0
-13 -399 401 0
-401 497 0
-14 -401 403 0
-403 498 0
-15 -403 405 0
-405 499 0
-16 -405 407 0
-407 500 0
-17 -407 409 0
-409 501 0
-18 -409 411 0
-411 502 0
-19 -411 413 0
-413 503 0
-20 -413 415 0
-415 504 0
-21 -415 417 0
-417 505 0
-22 -417 419 0
-419 506 0
-23 -419 421 0
-421 507 0
-24 -421 423 0
-423 508 0
-25 -423 425 0
-425 509 0
-26 -425 427 0
-427 510 0
-27 -427 429 0
-429 511 0
-28 -429 431 0
-431 512 0
-29 -431 433 0
-433 513 0
-30 -433 435 0
-435 514 0
-31 -435 437 0
-437 515 0
-32 -437 439 0
-439 516 0
-33 -439 441 0
-441 517 0
-34 -441 443 0
-443 518 0
-35 -443 445 0
-445 519 0
-36 -445 447 0
-447 520 0
-37 -447 449 0
-449 521 0
-38 -449 451 0
-451 522 0
-39 -451 453 0
-453 523 0
-40 -453 455 0
-455 524 0
-41 -455 457 0
-457 525 0
-42 -457 459 0
-459 526 0
-43 -459 461 0
-461 527 0
-44 -461 463 0
-463 528 0
-45 -463 465 0
-465 529 0
-46 -465 467 0
-467 530 0
-47 -467 469 0
-469 531 0
-48 -469 471 0
-471 532 0
-49 -471 473 0
-473 533 0
-50 -473 475 0
-475 534 0
-51 -475 477 0
-477 535 0
-52 -477 479 0
-479 536 0
-53 -479 481 0
-481 537 0
-54 -481 483 0
-483 538 0
-55 -483 485 0
-485 539 0
-56 -485 0
-3 486 0
-486 540 0
-4 -486 487 0
-487 541 0
-5 -487 488 0
-488 542 0
-6 -488 489 0
-489 543 0
-7 -489 490 0
-490 544 0
-8 -490 491 0
-491 545 0
-9 -491 492 0
-492 546 0
-10 -492 493 0
-493 547 0
-11 -493 494 0
-494 548 0
-12 -494 495 0
-495 549 0
-13 -495 496 0
-496 550 0
-14 -496 497 0
-497 551 0
-15 -497 498 0
-498 552 0
-16 -498 499 0
-499 553 0
-17 -499 500 0
-500 554 0
-18 -500 501 0
-501 555 0
-19 -501 502 0
-502 556 0
-20 -502 503 0
-503 557 0
-21 -503 504 0
-504 558 0
-22 -504 505 0
-505 559 0
-23 -505 506 0
-506 560 0
-24 -506 507 0
-507 561 0
-25 -507 508 0
-508 562 0
-26 -508 509 0
-509 563 0
-27 -509 510 0
-510 564 0
-28 -510 511 0
-511 565 0
-29 -511 512 0
-512 566 0
-30 -512 513 0
-513 567 0
-31 -513 514 0
-514 568 0
-32 -514 515 0
-515 569 0
-33 -515 516 0
-516 570 0
-34 -516 517 0
-517 571 0
-35 -517 518 0
-518 572 0
-36 -518 519 0
-519 573 0
-37 -519 520 0
-520 574 0
-38 -520 521 0
-521 575 0
-39 -521 522 0
-522 576 0
-40 -522 523 0
-523 577 0
-41 -523 524 0
-524 578 0
-42 -524 525 0
-525 579 0
-43 -525 526 0
-526 580 0
-44 -526 527 0
-527 581 0
-45 -527 528 0
-528 582 0
-46 -528 529 0
-529 583 0
-47 -529 530 0
-530 584 0
-48 -530 531 0
-531 585 0
-49 -531 532 0
-532 586 0
-50 -532 533 0
-533 587 0
-51 -533 534 0
-534 588 0
-52 -534 535 0
-535 589 0
-53 -535 536 0
-536 590 0
-54 -536 537 0
-537 591 0
-55 -537 538 0
-538 592 0
-56 -538 539 0
-539 593 0
-57 -539 0
-4 540 0
-540 594 0
-5 -540 541 0
-541 595 0
-6 -541 542 0
-542 596 0
-7 -542 543 0
-543 597 0
-8 -543 544 0
-544 598 0
-9 -544 545 0
-545 599 0
-10 -545 546 0
-546 600 0
-11 -546 547 0
-547 601 0
-12 -547 548 0
-548 602 0
-13 -548 549 0
-549 603 0
-14 -549 550 0
-550 604 0
-15 -550 551 0
-551 605 0
-16 -551 552 0
-552 606 0
-17 -552 553 0
-553 607 0
-18 -553 554 0
-554 608 0
-19 -554 555 0
-555 609 0
-20 -555 556 0
-556 610 0
-21 -556 557 0
-557 611 0
-22 -557 558 0
-558 612 0
-23 -558 559 0
-559 613 0
-24 -559 560 0
-560 614 0
-25 -560 561 0
-561 615 0
-26 -561 562 0
-562 616 0
-27 -562 563 0
-563 617 0
-28 -563 564 0
-564 618 0
-29 -564 565 0
-565 619 0
-30 -565 566 0
-566 620 0
-31 -566 567 0
-567 621 0
-32 -567 568 0
-568 622 0
-33 -568 569 0
-569 623 0
-34 -569 570 0
-570 624 0
-35 -570 571 0
-571 625 0
-36 -571 572 0
-572 626 0
-37 -572 573 0
-573 627 0
-38 -573 574 0
-574 628 0
-39 -574 575 0
-575 629 0
-40 -575 576 0
-576 630 0
-41 -576 577 0
-577 631 0
-42 -577 578 0
-578 632 0
-43 -578 579 0
-579 633 0
-44 -579 580 0
-580 634 0
-45 -580 581 0
-581 635 0
-46 -581 582 0
-582 636 0
-47 -582 583 0
-583 637 0
-48 -583 584 0
-584 638 0
-49 -584 585 0
-585 639 0
-50 -585 586 0
-586 640 0
-51 -586 587 0
-587 641 0
-52 -587 588 0
-588 642 0
-53 -588 589 0
-589 643 0
-54 -589 590 0
-590 644 0
-55 -590 591 0
-591 645 0
-56 -591 592 0
-592 646 0
-57 -592 593 0
-593 647 0
-58 -593 0
-5 594 0
-594 648 0
-6 -594 595 0
-595 649 0
-7 -595 596 0
-596 650 0
-8 -596 597 0
-597 651 0
-9 -597 598 0
-598 652 0
-10 -598 599 0
-599 653 0
-11 -599 600 0
-600 654 0
-12 -600 601 0
-601 655 0
-13 -601 602 0
-602 656 0
-14 -602 603 0
-603 657 0
-15 -603 604 0
-604 658 0
-16 -604 605 0
-605 659 0
-17 -605 606 0
-606 660 0
-18 -606 607 0
-607 661 0
-19 -607 608 0
-608 662 0
-20 -608 609 0
-609 663 0
-21 -609 610 0
-610 664 0
-22 -610 611 0
-611 665 0
-23 -611 612 0
-612 666 0
-24 -612 613 0
-613 667 0
-25 -613 614 0
-614 668 0
-26 -614 615 0
-615 669 0
-27 -615 616 0
-616 670 0
-28 -616 617 0
-617 671 0
-29 -617 618 0
-618 672 0
-30 -618 619 0
-619 673 0
-31 -619 620 0
-620 674 0
-32 -620 621 0
-621 675 0
-33 -621 622 0
-622 676 0
-34 -622 623 0
-623 677 0
-35 -623 624 0
-624 678 0
-36 -624 625 0
-625 679 0
-37 -625 626 0
-626 680 0
-38 -626 627 0
-627 681 0
-39 -627 628 0
-628 682 0
-40 -628 629 0
-629 683 0
-41 -629 630 0
-630 684 0
-42 -630 631 0
-631 685 0
-43 -631 632 0
-632 686 0
-44 -632 633 0
-633 687 0
-45 -633 634 0
-634 688 0
-46 -634 635 0
-635 689 0
-47 -635 636 0
-636 690 0
-48 -636 637 0
-637 691 0
-49 -637 638 0
-638 692 0
-50 -638 639 0
-639 693 0
-51 -639 640 0
-640 694 0
-52 -640 641 0
-641 695 0
-53 -641 642 0
-642 696 0
-54 -642 643 0
-643 697 0
-55 -643 644 0
-644 698 0
-56 -644 645 0
-645 699 0
-57 -645 646 0
-646 700 0
-58 -646 647 0
-647 701 0
-59 -647 0
-6 648 0
-648 702 0
-7 -648 649 0
-649 703 0
-8 -649 650 0
-650 704 0
-9 -650 651 0
-651 705 0
-10 -651 652 0
-652 706 0
-11 -652 653 0
-653 707 0
-12 -653 654 0
-654 708 0
-13 -654 655 0
-655 709 0
-14 -655 656 0
-656 710 0
-15 -656 657 0
-657 711 0
-16 -657 658 0
-658 712 0
-17 -658 659 0
-659 713 0
-18 -659 660 0
-660 714 0
-19 -660 661 0
-661 715 0
-20 -661 662 0
-662 716 0
-21 -662 663 0
-663 717 0
-22 -663 664 0
-664 718 0
-23 -664 665 0
-665 719 0
-24 -665 666 0
-666 720 0
-25 -666 667 0
-667 721 0
-26 -667 668 0
-668 722 0
-27 -668 669 0
-669 723 0
-28 -669 670 0
-670 724 0
-29 -670 671 0
-671 725 0
-30 -671 672 0
-672 726 0
-31 -672 673 0
-673 727 0
-32 -673 674 0
-674 728 0
-33 -674 675 0
-675 729 0
-34 -675 676 0
-676 730 0
-35 -676 677 0
-677 731 0
-36 -677 678 0
-678 732 0
-37 -678 679 0
-679 733 0
-38 -679 680 0
-680 734 0
-39 -680 681 0
-681 735 0
-40 -681 682 0
-682 736 0
-41 -682 683 0
-683 737 0
-42 -683 684 0
-684 738 0
-43 -684 685 0
-685 739 0
-44 -685 686 0
-686 740 0
-45 -686 687 0
-687 741 0
-46 -687 688 0
-688 742 0
-47 -688 689 0
-689 743 0
-48 -689 690 0
-690 744 0
-49 -690 691 0
-691 745 0
-50 -691 692 0
-692 746 0
-51 -692 693 0
-693 747 0
-52 -693 694 0
-694 748 0
-53 -694 695 0
-695 749 0
-54 -695 696 0
-696 750 0
-55 -696 697 0
-697 751 0
-56 -697 698 0
-698 752 0
-57 -698 699 0
-699 753 0
-58 -699 700 0
-700 754 0
-59 -700 701 0
-701 755 0
-60 -701 0
-7 702 0
-702 756 0
-8 -702 703 0
-703 757 0
-9 -703 704 0
-704 758 0
-10 -704 705 0
-705 759 0
-11 -705 706 0
-706 760 0
-12 -706 707 0
-707 761 0
-13 -707 708 0
-708 762 0
-14 -708 709 0
-709 763 0
-15 -709 710 0
-710 764 0
-16 -710 711 0
-711 765 0
-17 -711 712 0
-712 766 0
-18 -712 713 0
-713 767 0
-19 -713 714 0
-714 768 0
-20 -714 715 0
-715 769 0
-21 -715 716 0
-716 770 0
-22 -716 717 0
-717 771 0
-23 -717 718 0
-718 772 0
-24 -718 719 0
-719 773 0
-25 -719 720 0
-720 774 0
-26 -720 721 0
-721 775 0
-27 -721 722 0
-722 776 0
-28 -722 723 0
-723 777 0
-29 -723 724 0
-724 778 0
-30 -724 725 0
-725 779 0
-31 -725 726 0
-726 780 0
-32 -726 727 0
-727 781 0
-33 -727 728 0
-728 782 0
-34 -728 729 0
-729 783 0
-35 -729 730 0
-730 784 0
-36 -730 731 0
-731 785 0
-37 -731 732 0
-732 786 0
-38 -732 733 0
-733 787 0
-39 -733 734 0
-734 788 0
-40 -734 735 0
-735 789 0
-41 -735 736 0
-736 790 0
-42 -736 737 0
-737 791 0
-43 -737 738 0
-738 792 0
-44 -738 739 0
-739 793 0
-45 -739 740 0
-740 794 0
-46 -740 741 0
-741 795 0
-47 -741 742 0
-742 796 0
-48 -742 743 0
-743 797 0
-49 -743 744 0
-744 798 0
-50 -744 745 0
-745 799 0
-51 -745 746 0
-746 800 0
-52 -746 747 0
-747 801 0
-53 -747 748 0
-748 802 0
-54 -748 749 0
-749 803 0
-55 -749 750 0
-750 804 0
-56 -750 751 0
-751 805 0
-57 -751 752 0
-752 806 0
-58 -752 753 0
-753 807 0
-59 -753 754 0
-754 808 0
-60 -754 755 0
-755 809 0
-61 -755 0
-8 756 0
-756 810 0
-9 -756 757 0
-757 811 0
-10 -757 758 0
-758 812 0
-11 -758 759 0
-759 813 0
-12 -759 760 0
-760 814 0
-13 -760 761 0
-761 815 0
-14 -761 762 0
-762 816 0
-15 -762 763 0
-763 817 0
-16 -763 764 0
-764 818 0
-17 -764 765 0
-765 819 0
-18 -765 766 0
-766 820 0
-19 -766 767 0
-767 821 0
-20 -767 768 0
-768 822 0
-21 -768 769 0
-769 823 0
-22 -769 770 0
-770 824 0
-23 -770 771 0
-771 825 0
-24 -771 772 0
-772 826 0
-25 -772 773 0
-773 827 0
-26 -773 774 0
-774 828 0
-27 -774 775 0
-775 829 0
-28 -775 776 0
-776 830 0
-29 -776 777 0
-777 831 0
-30 -777 778 0
-778 832 0
-31 -778 779 0
-779 833 0
-32 -779 780 0
-780 834 0
-33 -780 781 0
-781 835 0
-34 -781 782 0
-782 836 0
-35 -782 783 0
-783 837 0
-36 -783 784 0
-784 838 0
-37 -784 785 0
-785 839 0
-38 -785 786 0
-786 840 0
-39 -786 787 0
-787 841 0
-40 -787 788 0
-788 842 0
-41 -788 789 0
-789 843 0
-42 -789 790 0
-790 844 0
-43 -790 791 0
-791 845 0
-44 -791 792 0
-792 846 0
-45 -792 793 0
-793 847 0
-46 -793 794 0
-794 848 0
-47 -794 795 0
-795 849 0
-48 -795 796 0
-796 850 0
-49 -796 797 0
-797 851 0
-50 -797 798 0
-798 852 0
-51 -798 799 0
-799 853 0
-52 -799 800 0
-800 854 0
-53 -800 801 0
-801 855 0
-54 -801 802 0
-802 856 0
-55 -802 803 0
-803 857 0
-56 -803 804 0
-804 858 0
-57 -804 805 0
-805 859 0
-58 -805 806 0
-806 860 0
-59 -806 807 0
-807 861 0
-60 -807 808 0
-808 862 0
-61 -808 809 0
-809 863 0
-62 -809 0
-9 810 0
-810 864 0
-10 -810 811 0
-811 865 0
-11 -811 812 0
-812 866 0
-12 -812 813 0
-813 867 0
-13 -813 814 0
-814 868 0
-14 -814 815 0
-815 869 0
-15 -815 816 0
-816 870 0
-16 -816 817 0
-817 871 0
-17 -817 818 0
-818 872 0
-18 -818 819 0
-819 873 0
-19 -819 820 0
-820 874 0
-20 -820 821 0
-821 875 0
-21 -821 822 0
-822 876 0
-22 -822 823 0
-823 877 0
-23 -823 824 0
-824 878 0
-24 -824 825 0
-825 879 0
-25 -825 826 0
-826 880 0
-26 -826 827 0
-827 881 0
-27 -827 828 0
-828 882 0
-28 -828 829 0
-829 883 0
-29 -829 830 0
-830 884 0
-30 -830 831 0
-831 885 0
-31 -831 832 0
-832 886 0
-32 -832 833 0
-833 887 0
-33 -833 834 0
-834 888 0
-34 -834 835 0
-835 889 0
-35 -835 836 0
-836 890 0
-36 -836 837 0
-837 891 0
-37 -837 838 0
-838 892 0
-38 -838 839 0
-839 893 0
-39 -839 840 0
-840 894 0
-40 -840 841 0
-841 895 0
-41 -841 842 0
-842 896 0
-42 -842 843 0
-843 897 0
-43 -843 844 0
-844 898 0
-44 -844 845 0
-845 899 0
-45 -845 846 0
-846 900 0
-46 -846 847 0
-847 901 0
-47 -847 848 0
-848 902 0
-48 -848 849 0
-849 903 0
-49 -849 850 0
-850 904 0
-50 -850 851 0
-851 905 0
-51 -851 852 0
-852 906 0
-52 -852 853 0
-853 907 0
-53 -853 854 0
-854 908 0
-54 -854 855 0
-855 909 0
-55 -855 856 0
-856 910 0
-56 -856 857 0
-857 911 0
-57 -857 858 0
-858 912 0
-58 -858 859 0
-859 913 0
-59 -859 860 0
-860 914 0
-60 -860 861 0
-861 915 0
-61 -861 862 0
-862 916 0
-62 -862 863 0
-863 917 0
-63 -863 0
-10 864 0
-864 918 0
-11 -864 865 0
-865 919 0
-12 -865 866 0
-866 920 0
-13 -866 867 0
-867 921 0
-14 -867 868 0
-868 922 0
-15 -868 869 0
-869 923 0
-16 -869 870 0
-870 924 0
-17 -870 871 0
-871 925 0
-18 -871 872 0
-872 926 0
-19 -872 873 0
-873 927 0
-20 -873 874 0
-874 928 0
-21 -874 875 0
-875 929 0
-22 -875 876 0
-876 930 0
-23 -876 877 0
-877 931 0
-24 -877 878 0
-878 932 0
-25 -878 879 0
-879 933 0
-26 -879 880 0
-880 934 0
-27 -880 881 0
-881 935 0
-28 -881 882 0
-882 936 0
-29 -882 883 0
-883 937 0
-30 -883 884 0
-884 938 0
-31 -884 885 0
-885 939 0
-32 -885 886 0
-886 940 0
-33 -886 887 0
-887 941 0
-34 -887 888 0
-888 942 0
-35 -888 889 0
-889 943 0
-36 -889 890 0
-890 944 0
-37 -890 891 0
-891 945 0
-38 -891 892 0
-892 946 0
-39 -892 893 0
-893 947 0
-40 -893 894 0
-894 948 0
-41 -894 895 0
-895 949 0
-42 -895 896 0
-896 950 0
-43 -896 897 0
-897 951 0
-44 -897 898 0
-898 952 0
-45 -898 899 0
-899 953 0
-46 -899 900 0
-900 954 0
-47 -900 901 0
-901 955 0
-48 -901 902 0
-902 956 0
-49 -902 903 0
-903 957 0
-50 -903 904 0
-904 958 0
-51 -904 905 0
-905 959 0
-52 -905 906 0
-906 960 0
-53 -906 907 0
-907 961 0
-54 -907 908 0
-908 962 0
-55 -908 909 0
-909 963 0
-56 -909 910 0
-910 964 0
-57 -910 911 0
-911 965 0
-58 -911 912 0
-912 966 0
-59 -912 913 0
-913 967 0
-60 -913 914 0
-914 968 0
-61 -914 915 0
-915 969 0
-62 -915 916 0
-916 970 0
-63 -916 917 0
-917 971 0
-64 -917 0
-11 918 0
-918 972 0
-12 -918 919 0
-919 973 0
-13 -919 920 0
-920 974 0
-14 -920 921 0
-921 975 0
-15 -921 922 0
-922 976 0
-16 -922 923 0
-923 977 0
-17 -923 924 0
-924 978 0
-18 -924 925 0
-925 979 0
-19 -925 926 0
-926 980 0
-20 -926 927 0
-927 981 0
-21 -927 928 0
-928 982 0
-22 -928 929 0
-929 983 0
-23 -929 930 0
-930 984 0
-24 -930 931 0
-931 985 0
-25 -931 932 0
-932 986 0
-26 -932 933 0
-933 987 0
-27 -933 934 0
-934 988 0
-28 -934 935 0
-935 989 0
-29 -935 936 0
-936 990 0
-30 -936 937 0
-937 991 0
-31 -937 938 0
-938 992 0
-32 -938 939 0
-939 993 0
-33 -939 940 0
-940 994 0
-34 -940 941 0
-941 995 0
-35 -941 942 0
-942 996 0
-36 -942 943 0
-943 997 0
-37 -943 944 0
-944 998 0
-38 -944 945 0
-945 999 0
-39 -945 946 0
-946 1000 0
-40 -946 947 0
-947 1001 0
-41 -947 948 0
-948 1002 0
-42 -948 949 0
-949 1003 0
-43 -949 950 0
-950 1004 0
-44 -950 951 0
-951 1005 0
-45 -951 952 0
-952 1006 0
-46 -952 953 0
-953 1007 0
-47 -953 954 0
-954 1008 0
-48 -954 955 0
-955 1009 0
-49 -955 956 0
-956 1010 0
-50 -956 957 0
-957 1011 0
-51 -957 958 0
-958 1012 0
-52 -958 959 0
-959 1013 0
-53 -959 960 0
-960 1014 0
-54 -960 961 0
-961 1015 0
-55 -961 962 0
-962 1016 0
-56 -962 963 0
-963 1017 0
-57 -963 964 0
-964 1018 0
-58 -964 965 0
-965 1019 0
-59 -965 966 0
-966 1020 0
-60 -966 967 0
-967 1021 0
-61 -967 968 0
-968 1022 0
-62 -968 969 0
-969 1023 0
-63 -969 970 0
-970 1024 0
-64 -970 971 0
-971 1025 0
-65 -971 0
-12 972 0
-972 1026 0
-13 -972 973 0
-973 1027 0
-14 -973 974 0
-974 1028 0
-15 -974 975 0
-975 1029 0
-16 -975 976 0
-976 1030 0
-17 -976 977 0
-977 1031 0
-18 -977 978 0
-978 1032 0
-19 -978 979 0
-979 1033 0
-20 -979 980 0
-980 1034 0
-21 -980 981 0
-981 1035 0
-22 -981 982 0
-982 1036 0
-23 -982 983 0
-983 1037 0
-24 -983 984 0
-984 1038 0
-25 -984 985 0
-985 1039 0
-26 -985 986 0
-986 1040 0
-27 -986 987 0
-987 1041 0
-28 -987 988 0
-988 1042 0
-29 -988 989 0
-989 1043 0
-30 -989 990 0
-990 1044 0
-31 -990 991 0
-991 1045 0
-32 -991 992 0
-992 1046 0
-33 -992 993 0
-993 1047 0
-34 -993 994 0
-994 1048 0
-35 -994 995 0
-995 1049 0
-36 -995 996 0
-996 1050 0
-37 -996 997 0
-997 1051 0
-38 -997 998 0
-998 1052 0
-39 -998 999 0
-999 1053 0
-40 -999 1000 0
-1000 1054 0
-41 -1000 1001 0
-1001 1055 0
-42 -1001 1002 0
-1002 1056 0
-43 -1002 1003 0
-1003 1057 0
-44 -1003 1004 0
-1004 1058 0
-45 -1004 1005 0
-1005 1059 0
-46 -1005 1006 0
-1006 1060 0
-47 -1006 1007 0
-1007 1061 0
-48 -1007 1008 0
-1008 1062 0
-49 -1008 1009 0
-1009 1063 0
-50 -1009 1010 0
-1010 1064 0
-51 -1010 1011 0
-1011 1065 0
-52 -1011 1012 0
-1012 1066 0
-53 -1012 1013 0
-1013 1067 0
-54 -1013 1014 0
-1014 1068 0
-55 -1014 1015 0
-1015 1069 0
-56 -1015 1016 0
-1016 1070 0
-57 -1016 1017 0
-1017 1071 0
-58 -1017 1018 0
-1018 1072 0
-59 -1018 1019 0
-1019 1073 0
-60 -1019 1020 0
-1020 1074 0
-61 -1020 1021 0
-1021 1075 0
-62 -1021 1022 0
-1022 1076 0
-63 -1022 1023 0
-1023 1077 0
-64 -1023 1024 0
-1024 1078 0
-65 -1024 1025 0
-1025 1079 0
-66 -1025 0
-13 1026 0
-1026 1080 0
-14 -1026 1027 0
-1027 1081 0
-15 -1027 1028 0
-1028 1082 0
-16 -1028 1029 0
-1029 1083 0
-17 -1029 1030 0
-1030 1084 0
-18 -1030 1031 0
-1031 1085 0
-19 -1031 1032 0
-1032 1086 0
-20 -1032 1033 0
-1033 1087 0
-21 -1033 1034 0
-1034 1088 0
-22 -1034 1035 0
-1035 1089 0
-23 -1035 1036 0
-1036 1090 0
-24 -1036 1037 0
-1037 1091 0
-25 -1037 1038 0
-1038 1092 0
-26 -1038 1039 0
-1039 1093 0
-27 -1039 1040 0
-1040 1094 0
-28 -1040 1041 0
-1041 1095 0
-29 -1041 1042 0
-1042 1096 0
-30 -1042 1043 0
-1043 1097 0
-31 -1043 1044 0
-1044 1098 0
-32 -1044 1045 0
-1045 1099 0
-33 -1045 1046 0
-1046 1100 0
-34 -1046 1047 0
-1047 1101 0
-35 -1047 1048 0
-1048 1102 0
-36 -1048 1049 0
-1049 1103 0
-37 -1049 1050 0
-1050 1104 0
-38 -1050 1051 0
-1051 1105 0
-39 -1051 1052 0
-1052 1106 0
-40 -1052 1053 0
-1053 1107 0
-41 -1053 1054 0
-1054 1108 0
-42 -1054 1055 0
-1055 1109 0
-43 -1055 1056 0
-1056 1110 0
-44 -1056 1057 0
-1057 1111 0
-45 -1057 1058 0
-1058 1112 0
-46 -1058 1059 0
-1059 1113 0
-47 -1059 1060 0
-1060 1114 0
-48 -1060 1061 0
-1061 1115 0
-49 -1061 1062 0
-1062 1116 0
-50 -1062 1063 0
-1063 1117 0
-51 -1063 1064 0
-1064 1118 0
-52 -1064 1065 0
-1065 1119 0
-53 -1065 1066 0
-1066 1120 0
-54 -1066 1067 0
-1067 1121 0
-55 -1067 1068 0
-1068 1122 0
-56 -1068 1069 0
-1069 1123 0
-57 -1069 1070 0
-1070 1124 0
-58 -1070 1071 0
-1071 1125 0
-59 -1071 1072 0
-1072 1126 0
-60 -1072 1073 0
-1073 1127 0
-61 -1073 1074 0
-1074 1128 0
-62 -1074 1075 0
-1075 1129 0
-63 -1075 1076 0
-1076 1130 0
-64 -1076 1077 0
-1077 1131 0
-65 -1077 1078 0
-1078 1132 0
-66 -1078 1079 0
-1079 1133 0
-67 -1079 0
-14 1080 0
-1080 1134 0
-15 -1080 1081 0
-1081 1135 0
-16 -1081 1082 0
-1082 1136 0
-17 -1082 1083 0
-1083 1137 0
-18 -1083 1084 0
-1084 1138 0
-19 -1084 1085 0
-1085 1139 0
-20 -1085 1086 0
-1086 1140 0
-21 -1086 1087 0
-1087 1141 0
-22 -1087 1088 0
-1088 1142 0
-23 -1088 1089 0
-1089 1143 0
-24 -1089 1090 0
-1090 1144 0
-25 -1090 1091 0
-1091 1145 0
-26 -1091 1092 0
-1092 1146 0
-27 -1092 1093 0
-1093 1147 0
-28 -1093 1094 0
-1094 1148 0
-29 -1094 1095 0
-1095 1149 0
-30 -1095 1096 0
-1096 1150 0
-31 -1096 1097 0
-1097 1151 0
-32 -1097 1098 0
-1098 1152 0
-33 -1098 1099 0
-1099 1153 0
-34 -1099 1100 0
-1100 1154 0
-35 -1100 1101 0
-1101 1155 0
-36 -1101 1102 0
-1102 1156 0
-37 -1102 1103 0
-1103 1157 0
-38 -1103 1104 0
-1104 1158 0
-39 -1104 1105 0
-1105 1159 0
-40 -1105 1106 0
-1106 1160 0
-41 -1106 1107 0
-1107 1161 0
-42 -1107 1108 0
-1108 1162 0
-43 -1108 1109 0
-1109 1163 0
-44 -1109 1110 0
-1110 1164 0
-45 -1110 1111 0
-1111 1165 0
-46 -1111 1112 0
-1112 1166 0
-47 -1112 1113 0
-1113 1167 0
-48 -1113 1114 0
-1114 1168 0
-49 -1114 1115 0
-1115 1169 0
-50 -1115 1116 0
-1116 1170 0
-51 -1116 1117 0
-1117 1171 0
-52 -1117 1118 0
-1118 1172 0
-53 -1118 1119 0
-1119 1173 0
-54 -1119 1120 0
-1120 1174 0
-55 -1120 1121 0
-1121 1175 0
-56 -1121 1122 0
-1122 1176 0
-57 -1122 1123 0
-1123 1177 0
-58 -1123 1124 0
-1124 1178 0
-59 -1124 1125 0
-1125 1179 0
-60 -1125 1126 0
-1126 1180 0
-61 -1126 1127 0
-1127 1181 0
-62 -1127 1128 0
-1128 1182 0
-63 -1128 1129 0
-1129 1183 0
-64 -1129 1130 0
-1130 1184 0
-65 -1130 1131 0
-1131 1185 0
-66 -1131 1132 0
-1132 1186 0
-67 -1132 1133 0
-1133 1187 0
-68 -1133 0
-15 1134 0
-1134 1188 0
-16 -1134 1135 0
-1135 1189 0
-17 -1135 1136 0
-1136 1190 0
-18 -1136 1137 0
-1137 1191 0
-19 -1137 1138 0
-1138 1192 0
-20 -1138 1139 0
-1139 1193 0
-21 -1139 1140 0
-1140 1194 0
-22 -1140 1141 0
-1141 1195 0
-23 -1141 1142 0
-1142 1196 0
-24 -1142 1143 0
-1143 1197 0
-25 -1143 1144 0
-1144 1198 0
-26 -1144 1145 0
-1145 1199 0
-27 -1145 1146 0
-1146 1200 0
-28 -1146 1147 0
-1147 1201 0
-29 -1147 1148 0
-1148 1202 0
-30 -1148 1149 0
-1149 1203 0
-31 -1149 1150 0
-1150 1204 0
-32 -1150 1151 0
-1151 1205 0
-33 -1151 1152 0
-1152 1206 0
-34 -1152 1153 0
-1153 1207 0
-35 -1153 1154 0
-1154 1208 0
-36 -1154 1155 0
-1155 1209 0
-37 -1155 1156 0
-1156 1210 0
-38 -1156 1157 0
-1157 1211 0
-39 -1157 1158 0
-1158 1212 0
-40 -1158 1159 0
-1159 1213 0
-41 -1159 1160 0
-1160 1214 0
-42 -1160 1161 0
-1161 1215 0
-43 -1161 1162 0
-1162 1216 0
-44 -1162 1163 0
-1163 1217 0
-45 -1163 1164 0
-1164 1218 0
-46 -1164 1165 0
-1165 1219 0
-47 -1165 1166 0
-1166 1220 0
-48 -1166 1167 0
-1167 1221 0
-49 -1167 1168 0
-1168 1222 0
-50 -1168 1169 0
-1169 1223 0
-51 -1169 1170 0
-1170 1224 0
-52 -1170 1171 0
-1171 1225 0
-53 -1171 1172 0
-1172 1226 0
-54 -1172 1173 0
-1173 1227 0
-55 -1173 1174 0
-1174 1228 0
-56 -1174 1175 0
-1175 1229 0
-57 -1175 1176 0
-1176 1230 0
-58 -1176 1177 0
-1177 1231 0
-59 -1177 1178 0
-1178 1232 0
-60 -1178 1179 0
-1179 1233 0
-61 -1179 1180 0
-1180 1234 0
-62 -1180 1181 0
-1181 1235 0
-63 -1181 1182 0
-1182 1236 0
-64 -1182 1183 0
-1183 1237 0
-65 -1183 1184 0
-1184 1238 0
-66 -1184 1185 0
-1185 1239 0
-67 -1185 1186 0
-1186 1240 0
-68 -1186 1187 0
-1187 1241 0
-69 -1187 0
-16 1188 0
-1188 1242 0
-17 -1188 1189 0
-1189 1243 0
-18 -1189 1190 0
-1190 1244 0
-19 -1190 1191 0
-1191 1245 0
-20 -1191 1192 0
-1192 1246 0
-21 -1192 1193 0
-1193 1247 0
-22 -1193 1194 0
-1194 1248 0
-23 -1194 1195 0
-1195 1249 0
-24 -1195 1196 0
-1196 1250 0
-25 -1196 1197 0
-1197 1251 0
-26 -1197 1198 0
-1198 1252 0
-27 -1198 1199 0
-1199 1253 0
-28 -1199 1200 0
-1200 1254 0
-29 -1200 1201 0
-1201 1255 0
-30 -1201 1202 0
-1202 1256 0
-31 -1202 1203 0
-1203 1257 0
-32 -1203 1204 0
-1204 1258 0
-33 -1204 1205 0
-1205 1259 0
-34 -1205 1206 0
-1206 1260 0
-35 -1206 1207 0
-1207 1261 0
-36 -1207 1208 0
-1208 1262 0
-37 -1208 1209 0
-1209 1263 0
-38 -1209 1210 0
-1210 1264 0
-39 -1210 1211 0
-1211 1265 0
-40 -1211 1212 0
-1212 1266 0
-41 -1212 1213 0
-1213 1267 0
-42 -1213 1214 0
-1214 1268 0
-43 -1214 1215 0
-1215 1269 0
-44 -1215 1216 0
-1216 1270 0
-45 -1216 1217 0
-1217 1271 0
-46 -1217 1218 0
-1218 1272 0
-47 -1218 1219 0
-1219 1273 0
-48 -1219 1220 0
-1220 1274 0
-49 -1220 1221 0
-1221 1275 0
-50 -1221 1222 0
-1222 1276 0
-51 -1222 1223 0
-1223 1277 0
-52 -1223 1224 0
-1224 1278 0
-53 -1224 1225 0
-1225 1279 0
-54 -1225 1226 0
-1226 1280 0
-55 -1226 1227 0
-1227 1281 0
-56 -1227 1228 0
-1228 1282 0
-57 -1228 1229 0
-1229 1283 0
-58 -1229 1230 0
-1230 1284 0
-59 -1230 1231 0
-1231 1285 0
-60 -1231 1232 0
-1232 1286 0
-61 -1232 1233 0
-1233 1287 0
-62 -1233 1234 0
-1234 1288 0
-63 -1234 1235 0
-1235 1289 0
-64 -1235 1236 0
-1236 1290 0
-65 -1236 1237 0
-1237 1291 0
-66 -1237 1238 0
-1238 1292 0
-67 -1238 1239 0
-1239 1293 0
-68 -1239 1240 0
-1240 1294 0
-69 -1240 1241 0
-1241 1295 0
-70 -1241 0
-17 1242 0
-1242 1296 0
-18 -1242 1243 0
-1243 1297 0
-19 -1243 1244 0
-1244 1298 0
-20 -1244 1245 0
-1245 1299 0
-21 -1245 1246 0
-1246 1300 0
-22 -1246 1247 0
-1247 1301 0
-23 -1247 1248 0
-1248 1302 0
-24 -1248 1249 0
-1249 1303 0
-25 -1249 1250 0
-1250 1304 0
-26 -1250 1251 0
-1251 1305 0
-27 -1251 1252 0
-1252 1306 0
-28 -1252 1253 0
-1253 1307 0
-29 -1253 1254 0
-1254 1308 0
-30 -1254 1255 0
-1255 1309 0
-31 -1255 1256 0
-1256 1310 0
-32 -1256 1257 0
-1257 1311 0
-33 -1257 1258 0
-1258 1312 0
-34 -1258 1259 0
-1259 1313 0
-35 -1259 1260 0
-1260 1314 0
-36 -1260 1261 0
-1261 1315 0
-37 -1261 1262 0
-1262 1316 0
-38 -1262 1263 0
-1263 1317 0
-39 -1263 1264 0
-1264 1318 0
-40 -1264 1265 0
-1265 1319 0
-41 -1265 1266 0
-1266 1320 0
-42 -1266 1267 0
-1267 1321 0
-43 -1267 1268 0
-1268 1322 0
-44 -1268 1269 0
-1269 1323 0
-45 -1269 1270 0
-1270 1324 0
-46 -1270 1271 0
-1271 1325 0
-47 -1271 1272 0
-1272 1326 0
-48 -1272 1273 0
-1273 1327 0
-49 -1273 1274 0
-1274 1328 0
-50 -1274 1275 0
-1275 1329 0
-51 -1275 1276 0
-1276 1330 0
-52 -1276 1277 0
-1277 1331 0
-53 -1277 1278 0
-1278 1332 0
-54 -1278 1279 0
-1279 1333 0
-55 -1279 1280 0
-1280 1334 0
-56 -1280 1281 0
-1281 1335 0
-57 -1281 1282 0
-1282 1336 0
-58 -1282 1283 0
-1283 1337 0
-59 -1283 1284 0
-1284 1338 0
-60 -1284 1285 0
-1285 1339 0
-61 -1285 1286 0
-1286 1340 0
-62 -1286 1287 0
-1287 1341 0
-63 -1287 1288 0
-1288 1342 0
-64 -1288 1289 0
-1289 1343 0
-65 -1289 1290 0
-1290 1344 0
-66 -1290 1291 0
-1291 1345 0
-67 -1291 1292 0
-1292 1346 0
-68 -1292 1293 0
-1293 1347 0
-69 -1293 1294 0
-1294 1348 0
-70 -1294 1295 0
-1295 1349 0
-71 -1295 0
-18 1296 0
-1296 1350 0
-19 -1296 1297 0
-1297 1351 0
-20 -1297 1298 0
-1298 1352 0
-21 -1298 1299 0
-1299 1353 0
-22 -1299 1300 0
-1300 1354 0
-23 -1300 1301 0
-1301 1355 0
-24 -1301 1302 0
-1302 1356 0
-25 -1302 1303 0
-1303 1357 0
-26 -1303 1304 0
-1304 1358 0
-27 -1304 1305 0
-1305 1359 0
-28 -1305 1306 0
-1306 1360 0
-29 -1306 1307 0
-1307 1361 0
-30 -1307 1308 0
-1308 1362 0
-31 -1308 1309 0
-1309 1363 0
-32 -1309 1310 0
-1310 1364 0
-33 -1310 1311 0
-1311 1365 0
-34 -1311 1312 0
-1312 1366 0
-35 -1312 1313 0
-1313 1367 0
-36 -1313 1314 0
-1314 1368 0
-37 -1314 1315 0
-1315 1369 0
-38 -1315 1316 0
-1316 1370 0
-39 -1316 1317 0
-1317 1371 0
-40 -1317 1318 0
-1318 1372 0
-41 -1318 1319 0
-1319 1373 0
-42 -1319 1320 0
-1320 1374 0
-43 -1320 1321 0
-1321 1375 0
-44 -1321 1322 0
-1322 1376 0
-45 -1322 1323 0
-1323 1377 0
-46 -1323 1324 0
-1324 1378 0
-47 -1324 1325 0
-1325 1379 0
-48 -1325 1326 0
-1326 1380 0
-49 -1326 1327 0
-1327 1381 0
-50 -1327 1328 0
-1328 1382 0
-51 -1328 1329 0
-1329 1383 0
-52 -1329 1330 0
-1330 1384 0
-53 -1330 1331 0
-1331 1385 0
-54 -1331 1332 0
-1332 1386 0
-55 -1332 1333 0
-1333 1387 0
-56 -1333 1334 0
-1334 1388 0
-57 -1334 1335 0
-1335 1389 0
-58 -1335 1336 0
-1336 1390 0
-59 -1336 1337 0
-1337 1391 0
-60 -1337 1338 0
-1338 1392 0
-61 -1338 1339 0
-1339 1393 0
-62 -1339 1340 0
-1340 1394 0
-63 -1340 1341 0
-1341 1395 0
-64 -1341 1342 0
-1342 1396 0
-65 -1342 1343 0
-1343 1397 0
-66 -1343 1344 0
-1344 1398 0
-67 -1344 1345 0
-1345 1399 0
-68 -1345 1346 0
-1346 1400 0
-69 -1346 1347 0
-1347 1401 0
-70 -1347 1348 0
-1348 1402 0
-71 -1348 1349 0
-1349 1403 0
-72 -1349 0
-19 1350 0
-1350 1404 0
-20 -1350 1351 0
-1351 1405 0
-21 -1351 1352 0
-1352 1406 0
-22 -1352 1353 0
-1353 1407 0
-23 -1353 1354 0
-1354 1408 0
-24 -1354 1355 0
-1355 1409 0
-25 -1355 1356 0
-1356 1410 0
-26 -1356 1357 0
-1357 1411 0
-27 -1357 1358 0
-1358 1412 0
-28 -1358 1359 0
-1359 1413 0
-29 -1359 1360 0
-1360 1414 0
-30 -1360 1361 0
-1361 1415 0
-31 -1361 1362 0
-1362 1416 0
-32 -1362 1363 0
-1363 1417 0
-33 -1363 1364 0
-1364 1418 0
-34 -1364 1365 0
-1365 1419 0
-35 -1365 1366 0
-1366 1420 0
-36 -1366 1367 0
-1367 1421 0
-37 -1367 1368 0
-1368 1422 0
-38 -1368 1369 0
-1369 1423 0
-39 -1369 1370 0
-1370 1424 0
-40 -1370 1371 0
-1371 1425 0
-41 -1371 1372 0
-1372 1426 0
-42 -1372 1373 0
-1373 1427 0
-43 -1373 1374 0
-1374 1428 0
-44 -1374 1375 0
-1375 1429 0
-45 -1375 1376 0
-1376 1430 0
-46 -1376 1377 0
-1377 1431 0
-47 -1377 1378 0
-1378 1432 0
-48 -1378 1379 0
-1379 1433 0
-49 -1379 1380 0
-1380 1434 0
-50 -1380 1381 0
-1381 1435 0
-51 -1381 1382 0
-1382 1436 0
-52 -1382 1383 0
-1383 1437 0
-53 -1383 1384 0
-1384 1438 0
-54 -1384 1385 0
-1385 1439 0
-55 -1385 1386 0
-1386 1440 0
-56 -1386 1387 0
-1387 1441 0
-57 -1387 1388 0
-1388 1442 0
-58 -1388 1389 0
-1389 1443 0
-59 -1389 1390 0
-1390 1444 0
-60 -1390 1391 0
-1391 1445 0
-61 -1391 1392 0
-1392 1446 0
-62 -1392 1393 0
-1393 1447 0
-63 -1393 1394 0
-1394 1448 0
-64 -1394 1395 0
-1395 1449 0
-65 -1395 1396 0
-1396 1450 0
-66 -1396 1397 0
-1397 1451 0
-67 -1397 1398 0
-1398 1452 0
-68 -1398 1399 0
-1399 1453 0
-69 -1399 1400 0
-1400 1454 0
-70 -1400 1401 0
-1401 1455 0
-71 -1401 1402 0
-1402 1456 0
-72 -1402 1403 0
-1403 1457 0
-73 -1403 0
-20 1404 0
-1404 1458 0
-21 -1404 1405 0
-1405 1459 0
-22 -1405 1406 0
-1406 1460 0
-23 -1406 1407 0
-1407 1461 0
-24 -1407 1408 0
-1408 1462 0
-25 -1408 1409 0
-1409 1463 0
-26 -1409 1410 0
-1410 1464 0
-27 -1410 1411 0
-1411 1465 0
-28 -1411 1412 0
-1412 1466 0
-29 -1412 1413 0
-1413 1467 0
-30 -1413 1414 0
-1414 1468 0
-31 -1414 1415 0
-1415 1469 0
-32 -1415 1416 0
-1416 1470 0
-33 -1416 1417 0
-1417 1471 0
-34 -1417 1418 0
-1418 1472 0
-35 -1418 1419 0
-1419 1473 0
-36 -1419 1420 0
-1420 1474 0
-37 -1420 1421 0
-1421 1475 0
-38 -1421 1422 0
-1422 1476 0
-39 -1422 1423 0
-1423 1477 0
-40 -1423 1424 0
-1424 1478 0
-41 -1424 1425 0
-1425 1479 0
-42 -1425 1426 0
-1426 1480 0
-43 -1426 1427 0
-1427 1481 0
-44 -1427 1428 0
-1428 1482 0
-45 -1428 1429 0
-1429 1483 0
-46 -1429 1430 0
-1430 1484 0
-47 -1430 1431 0
-1431 1485 0
-48 -1431 1432 0
-1432 1486 0
-49 -1432 1433 0
-1433 1487 0
-50 -1433 1434 0
-1434 1488 0
-51 -1434 1435 0
-1435 1489 0
-52 -1435 1436 0
-1436 1490 0
-53 -1436 1437 0
-1437 1491 0
-54 -1437 1438 0
-1438 1492 0
-55 -1438 1439 0
-1439 1493 0
-56 -1439 1440 0
-1440 1494 0
-57 -1440 1441 0
-1441 1495 0
-58 -1441 1442 0
-1442 1496 0
-59 -1442 1443 0
-1443 1497 0
-60 -1443 1444 0
-1444 1498 0
-61 -1444 1445 0
-1445 1499 0
-62 -1445 1446 0
-1446 1500 0
-63 -1446 1447 0
-1447 1501 0
-64 -1447 1448 0
-1448 1502 0
-65 -1448 1449 0
-1449 1503 0
-66 -1449 1450 0
-1450 1504 0
-67 -1450 1451 0
-1451 1505 0
-68 -1451 1452 0
-1452 1506 0
-69 -1452 1453 0
-1453 1507 0
-70 -1453 1454 0
-1454 1508 0
-71 -1454 1455 0
-1455 1509 0
-72 -1455 1456 0
-1456 1510 0
-73 -1456 1457 0
-1457 1511 0
-74 -1457 0
-21 1458 0
-1458 1512 0
-22 -1458 1459 0
-1459 1513 0
-23 -1459 1460 0
-1460 1514 0
-24 -1460 1461 0
-1461 1515 0
-25 -1461 1462 0
-1462 1516 0
-26 -1462 1463 0
-1463 1517 0
-27 -1463 1464 0
-1464 1518 0
-28 -1464 1465 0
-1465 1519 0
-29 -1465 1466 0
-1466 1520 0
-30 -1466 1467 0
-1467 1521 0
-31 -1467 1468 0
-1468 1522 0
-32 -1468 1469 0
-1469 1523 0
-33 -1469 1470 0
-1470 1524 0
-34 -1470 1471 0
-1471 1525 0
-35 -1471 1472 0
-1472 1526 0
-36 -1472 1473 0
-1473 1527 0
-37 -1473 1474 0
-1474 1528 0
-38 -1474 1475 0
-1475 1529 0
-39 -1475 1476 0
-1476 1530 0
-40 -1476 1477 0
-1477 1531 0
-41 -1477 1478 0
-1478 1532 0
-42 -1478 1479 0
-1479 1533 0
-43 -1479 1480 0
-1480 1534 0
-44 -1480 1481 0
-1481 1535 0
-45 -1481 1482 0
-1482 1536 0
-46 -1482 1483 0
-1483 1537 0
-47 -1483 1484 0
-1484 1538 0
-48 -1484 1485 0
-1485 1539 0
-49 -1485 1486 0
-1486 1540 0
-50 -1486 1487 0
-1487 1541 0
-51 -1487 1488 0
-1488 1542 0
-52 -1488 1489 0
-1489 1543 0
-53 -1489 1490 0
-1490 1544 0
-54 -1490 1491 0
-1491 1545 0
-55 -1491 1492 0
-1492 1546 0
-56 -1492 1493 0
-1493 1547 0
-57 -1493 1494 0
-1494 1548 0
-58 -1494 1495 0
-1495 1549 0
-59 -1495 1496 0
-1496 1550 0
-60 -1496 1497 0
-1497 1551 0
-61 -1497 1498 0
-1498 1552 0
-62 -1498 1499 0
-1499 1553 0
-63 -1499 1500 0
-1500 1554 0
-64 -1500 1501 0
-1501 1555 0
-65 -1501 1502 0
-1502 1556 0
-66 -1502 1503 0
-1503 1557 0
-67 -1503 1504 0
-1504 1558 0
-68 -1504 1505 0
-1505 1559 0
-69 -1505 1506 0
-1506 1560 0
-70 -1506 1507 0
-1507 1561 0
-71 -1507 1508 0
-1508 1562 0
-72 -1508 1509 0
-1509 1563 0
-73 -1509 1510 0
-1510 1564 0
-74 -1510 1511 0
-1511 1565 0
-75 -1511 0
-22 1512 0
-1512 1566 0
-23 -1512 1513 0
-1513 1567 0
-24 -1513 1514 0
-1514 1568 0
-25 -1514 1515 0
-1515 1569 0
-26 -1515 1516 0
-1516 1570 0
-27 -1516 1517 0
-1517 1571 0
-28 -1517 1518 0
-1518 1572 0
-29 -1518 1519 0
-1519 1573 0
-30 -1519 1520 0
-1520 1574 0
-31 -1520 1521 0
-1521 1575 0
-32 -1521 1522 0
-1522 1576 0
-33 -1522 1523 0
-1523 1577 0
-34 -1523 1524 0
-1524 1578 0
-35 -1524 1525 0
-1525 1579 0
-36 -1525 1526 0
-1526 1580 0
-37 -1526 1527 0
-1527 1581 0
-38 -1527 1528 0
-1528 1582 0
-39 -1528 1529 0
-1529 1583 0
-40 -1529 1530 0
-1530 1584 0
-41 -1530 1531 0
-1531 1585 0
-42 -1531 1532 0
-1532 1586 0
-43 -1532 1533 0
-1533 1587 0
-44 -1533 1534 0
-1534 1588 0
-45 -1534 1535 0
-1535 1589 0
-46 -1535 1536 0
-1536 1590 0
-47 -1536 1537 0
-1537 1591 0
-48 -1537 1538 0
-1538 1592 0
-49 -1538 1539 0
-1539 1593 0
-50 -1539 1540 0
-1540 1594 0
-51 -1540 1541 0
-1541 1595 0
-52 -1541 1542 0
-1542 1596 0
-53 -1542 1543 0
-1543 1597 0
-54 -1543 1544 0
-1544 1598 0
-55 -1544 1545 0
-1545 1599 0
-56 -1545 1546 0
-1546 1600 0
-57 -1546 1547 0
-1547 1601 0
-58 -1547 1548 0
-1548 1602 0
-59 -1548 1549 0
-1549 1603 0
-60 -1549 1550 0
-1550 1604 0
-61 -1550 1551 0
-1551 1605 0
-62 -1551 1552 0
-1552 1606 0
-63 -1552 1553 0
-1553 1607 0
-64 -1553 1554 0
-1554 1608 0
-65 -1554 1555 0
-1555 1609 0
-66 -1555 1556 0
-1556 1610 0
-67 -1556 1557 0
-1557 1611 0
-68 -1557 1558 0
-1558 1612 0
-69 -1558 1559 0
-1559 1613 0
-70 -1559 1560 0
-1560 1614 0
-71 -1560 1561 0
-1561 1615 0
-72 -1561 1562 0
-1562 1616 0
-73 -1562 1563 0
-1563 1617 0
-74 -1563 1564 0
-1564 1618 0
-75 -1564 1565 0
-1565 1619 0
-76 -1565 0
-23 1566 0
-1566 1620 0
-24 -1566 1567 0
-1567 1621 0
-25 -1567 1568 0
-1568 1622 0
-26 -1568 1569 0
-1569 1623 0
-27 -1569 1570 0
-1570 1624 0
-28 -1570 1571 0
-1571 1625 0
-29 -1571 1572 0
-1572 1626 0
-30 -1572 1573 0
-1573 1627 0
-31 -1573 1574 0
-1574 1628 0
-32 -1574 1575 0
-1575 1629 0
-33 -1575 1576 0
-1576 1630 0
-34 -1576 1577 0
-1577 1631 0
-35 -1577 1578 0
-1578 1632 0
-36 -1578 1579 0
-1579 1633 0
-37 -1579 1580 0
-1580 1634 0
-38 -1580 1581 0
-1581 1635 0
-39 -1581 1582 0
-1582 1636 0
-40 -1582 1583 0
-1583 1637 0
-41 -1583 1584 0
-1584 1638 0
-42 -1584 1585 0
-1585 1639 0
-43 -1585 1586 0
-1586 1640 0
-44 -1586 1587 0
-1587 1641 0
-45 -1587 1588 0
-1588 1642 0
-46 -1588 1589 0
-1589 1643 0
-47 -1589 1590 0
-1590 1644 0
-48 -1590 1591 0
-1591 1645 0
-49 -1591 1592 0
-1592 1646 0
-50 -1592 1593 0
-1593 1647 0
-51 -1593 1594 0
-1594 1648 0
-52 -1594 1595 0
-1595 1649 0
-53 -1595 1596 0
-1596 1650 0
-54 -1596 1597 0
-1597 1651 0
-55 -1597 1598 0
-1598 1652 0
-56 -1598 1599 0
-1599 1653 0
-57 -1599 1600 0
-1600 1654 0
-58 -1600 1601 0
-1601 1655 0
-59 -1601 1602 0
-1602 1656 0
-60 -1602 1603 0
-1603 1657 0
-61 -1603 1604 0
-1604 1658 0
-62 -1604 1605 0
-1605 1659 0
-63 -1605 1606 0
-1606 1660 0
-64 -1606 1607 0
-1607 1661 0
-65 -1607 1608 0
-1608 1662 0
-66 -1608 1609 0
-1609 1663 0
-67 -1609 1610 0
-1610 1664 0
-68 -1610 1611 0
-1611 1665 0
-69 -1611 1612 0
-1612 1666 0
-70 -1612 1613 0
-1613 1667 0
-71 -1613 1614 0
-1614 1668 0
-72 -1614 1615 0
-1615 1669 0
-73 -1615 1616 0
-1616 1670 0
-74 -1616 1617 0
-1617 1671 0
-75 -1617 1618 0
-1618 1672 0
-76 -1618 1619 0
-1619 1673 0
-77 -1619 0
-24 1620 0
-1620 1674 0
-25 -1620 1621 0
-1621 1675 0
-26 -1621 1622 0
-1622 1676 0
-27 -1622 1623 0
-1623 1677 0
-28 -1623 1624 0
-1624 1678 0
-29 -1624 1625 0
-1625 1679 0
-30 -1625 1626 0
-1626 1680 0
-31 -1626 1627 0
-1627 1681 0
-32 -1627 1628 0
-1628 1682 0
-33 -1628 1629 0
-1629 1683 0
-34 -1629 1630 0
-1630 1684 0
-35 -1630 1631 0
-1631 1685 0
-36 -1631 1632 0
-1632 1686 0
-37 -1632 1633 0
-1633 1687 0
-38 -1633 1634 0
-1634 1688 0
-39 -1634 1635 0
-1635 1689 0
-40 -1635 1636 0
-1636 1690 0
-41 -1636 1637 0
-1637 1691 0
-42 -1637 1638 0
-1638 1692 0
-43 -1638 1639 0
-1639 1693 0
-44 -1639 1640 0
-1640 1694 0
-45 -1640 1641 0
-1641 1695 0
-46 -1641 1642 0
-1642 1696 0
-47 -1642 1643 0
-1643 1697 0
-48 -1643 1644 0
-1644 1698 0
-49 -1644 1645 0
-1645 1699 0
-50 -1645 1646 0
-1646 1700 0
-51 -1646 1647 0
-1647 1701 0
-52 -1647 1648 0
-1648 1702 0
-53 -1648 1649 0
-1649 1703 0
-54 -1649 1650 0
-1650 1704 0
-55 -1650 1651 0
-1651 1705 0
-56 -1651 1652 0
-1652 1706 0
-57 -1652 1653 0
-1653 1707 0
-58 -1653 1654 0
-1654 1708 0
-59 -1654 1655 0
-1655 1709 0
-60 -1655 1656 0
-1656 1710 0
-61 -1656 1657 0
-1657 1711 0
-62 -1657 1658 0
-1658 1712 0
-63 -1658 1659 0
-1659 1713 0
-64 -1659 1660 0
-1660 1714 0
-65 -1660 1661 0
-1661 1715 0
-66 -1661 1662 0
-1662 1716 0
-67 -1662 1663 0
-1663 1717 0
-68 -1663 1664 0
-1664 1718 0
-69 -1664 1665 0
-1665 1719 0
-70 -1665 1666 0
-1666 1720 0
-71 -1666 1667 0
-1667 1721 0
-72 -1667 1668 0
-1668 1722 0
-73 -1668 1669 0
-1669 1723 0
-74 -1669 1670 0
-1670 1724 0
-75 -1670 1671 0
-1671 1725 0
-76 -1671 1672 0
-1672 1726 0
-77 -1672 1673 0
-1673 1727 0
-78 -1673 0
-25 1674 0
-1674 1728 0
-26 -1674 1675 0
-1675 1729 0
-27 -1675 1676 0
-1676 1730 0
-28 -1676 1677 0
-1677 1731 0
-29 -1677 1678 0
-1678 1732 0
-30 -1678 1679 0
-1679 1733 0
-31 -1679 1680 0
-1680 1734 0
-32 -1680 1681 0
-1681 1735 0
-33 -1681 1682 0
-1682 1736 0
-34 -1682 1683 0
-1683 1737 0
-35 -1683 1684 0
-1684 1738 0
-36 -1684 1685 0
-1685 1739 0
-37 -1685 1686 0
-1686 1740 0
-38 -1686 1687 0
-1687 1741 0
-39 -1687 1688 0
-1688 1742 0
-40 -1688 1689 0
-1689 1743 0
-41 -1689 1690 0
-1690 1744 0
-42 -1690 1691 0
-1691 1745 0
-43 -1691 1692 0
-1692 1746 0
-44 -1692 1693 0
-1693 1747 0
-45 -1693 1694 0
-1694 1748 0
-46 -1694 1695 0
-1695 1749 0
-47 -1695 1696 0
-1696 1750 0
-48 -1696 1697 0
-1697 1751 0
-49 -1697 1698 0
-1698 1752 0
-50 -1698 1699 0
-1699 1753 0
-51 -1699 1700 0
-1700 1754 0
-52 -1700 1701 0
-1701 1755 0
-53 -1701 1702 0
-1702 1756 0
-54 -1702 1703 0
-1703 1757 0
-55 -1703 1704 0
-1704 1758 0
-56 -1704 1705 0
-1705 1759 0
-57 -1705 1706 0
-1706 1760 0
-58 -1706 1707 0
-1707 1761 0
-59 -1707 1708 0
-1708 1762 0
-60 -1708 1709 0
-1709 1763 0
-61 -1709 1710 0
-1710 1764 0
-62 -1710 1711 0
-1711 1765 0
-63 -1711 1712 0
-1712 1766 0
-64 -1712 1713 0
-1713 1767 0
-65 -1713 1714 0
-1714 1768 0
-66 -1714 1715 0
-1715 1769 0
-67 -1715 1716 0
-1716 1770 0
-68 -1716 1717 0
-1717 1771 0
-69 -1717 1718 0
-1718 1772 0
-70 -1718 1719 0
-1719 1773 0
-71 -1719 1720 0
-1720 1774 0
-72 -1720 1721 0
-1721 1775 0
-73 -1721 1722 0
-1722 1776 0
-74 -1722 1723 0
-1723 1777 0
-75 -1723 1724 0
-1724 1778 0
-76 -1724 1725 0
-1725 1779 0
-77 -1725 1726 0
-1726 1780 0
-78 -1726 1727 0
-1727 1781 0
-79 -1727 0
-26 1728 0
-1728 1782 0
-27 -1728 1729 0
-1729 1783 0
-28 -1729 1730 0
-1730 1784 0
-29 -1730 1731 0
-1731 1785 0
-30 -1731 1732 0
-1732 1786 0
-31 -1732 1733 0
-1733 1787 0
-32 -1733 1734 0
-1734 1788 0
-33 -1734 1735 0
-1735 1789 0
-34 -1735 1736 0
-1736 1790 0
-35 -1736 1737 0
-1737 1791 0
-36 -1737 1738 0
-1738 1792 0
-37 -1738 1739 0
-1739 1793 0
-38 -1739 1740 0
-1740 1794 0
-39 -1740 1741 0
-1741 1795 0
-40 -1741 1742 0
-1742 1796 0
-41 -1742 1743 0
-1743 1797 0
-42 -1743 1744 0
-1744 1798 0
-43 -1744 1745 0
-1745 1799 0
-44 -1745 1746 0
-1746 1800 0
-45 -1746 1747 0
-1747 1801 0
-46 -1747 1748 0
-1748 1802 0
-47 -1748 1749 0
-1749 1803 0
-48 -1749 1750 0
-1750 1804 0
-49 -1750 1751 0
-1751 1805 0
-50 -1751 1752 0
-1752 1806 0
-51 -1752 1753 0
-1753 1807 0
-52 -1753 1754 0
-1754 1808 0
-53 -1754 1755 0
-1755 1809 0
-54 -1755 1756 0
-1756 1810 0
-55 -1756 1757 0
-1757 1811 0
-56 -1757 1758 0
-1758 1812 0
-57 -1758 1759 0
-1759 1813 0
-58 -1759 1760 0
-1760 1814 0
-59 -1760 1761 0
-1761 1815 0
-60 -1761 1762 0
-1762 1816 0
-61 -1762 1763 0
-1763 1817 0
-62 -1763 1764 0
-1764 1818 0
-63 -1764 1765 0
-1765 1819 0
-64 -1765 1766 0
-1766 1820 0
-65 -1766 1767 0
-1767 1821 0
-66 -1767 1768 0
-1768 1822 0
-67 -1768 1769 0
-1769 1823 0
-68 -1769 1770 0
-1770 1824 0
-69 -1770 1771 0
-1771 1825 0
-70 -1771 1772 0
-1772 1826 0
-71 -1772 1773 0
-1773 1827 0
-72 -1773 1774 0
-1774 1828 0
-73 -1774 1775 0
-1775 1829 0
-74 -1775 1776 0
-1776 1830 0
-75 -1776 1777 0
-1777 1831 0
-76 -1777 1778 0
-1778 1832 0
-77 -1778 1779 0
-1779 1833 0
-78 -1779 1780 0
-1780 1834 0
-79 -1780 1781 0
-1781 1835 0
-80 -1781 0
-27 1782 0
-1782 1836 0
-28 -1782 1783 0
-1783 1837 0
-29 -1783 1784 0
-1784 1838 0
-30 -1784 1785 0
-1785 1839 0
-31 -1785 1786 0
-1786 1840 0
-32 -1786 1787 0
-1787 1841 0
-33 -1787 1788 0
-1788 1842 0
-34 -1788 1789 0
-1789 1843 0
-35 -1789 1790 0
-1790 1844 0
-36 -1790 1791 0
-1791 1845 0
-37 -1791 1792 0
-1792 1846 0
-38 -1792 1793 0
-1793 1847 0
-39 -1793 1794 0
-1794 1848 0
-40 -1794 1795 0
-1795 1849 0
-41 -1795 1796 0
-1796 1850 0
-42 -1796 1797 0
-1797 1851 0
-43 -1797 1798 0
-1798 1852 0
-44 -1798 1799 0
-1799 1853 0
-45 -1799 1800 0
-1800 1854 0
-46 -1800 1801 0
-1801 1855 0
-47 -1801 1802 0
-1802 1856 0
-48 -1802 1803 0
-1803 1857 0
-49 -1803 1804 0
-1804 1858 0
-50 -1804 1805 0
-1805 1859 0
-51 -1805 1806 0
-1806 1860 0
-52 -1806 1807 0
-1807 1861 0
-53 -1807 1808 0
-1808 1862 0
-54 -1808 1809 0
-1809 1863 0
-55 -1809 1810 0
-1810 1864 0
-56 -1810 1811 0
-1811 1865 0
-57 -1811 1812 0
-1812 1866 0
-58 -1812 1813 0
-1813 1867 0
-59 -1813 1814 0
-1814 1868 0
-60 -1814 1815 0
-1815 1869 0
-61 -1815 1816 0
-1816 1870 0
-62 -1816 1817 0
-1817 1871 0
-63 -1817 1818 0
-1818 1872 0
-64 -1818 1819 0
-1819 1873 0
-65 -1819 1820 0
-1820 1874 0
-66 -1820 1821 0
-1821 1875 0
-67 -1821 1822 0
-1822 1876 0
-68 -1822 1823 0
-1823 1877 0
-69 -1823 1824 0
-1824 1878 0
-70 -1824 1825 0
-1825 1879 0
-71 -1825 1826 0
-1826 1880 0
-72 -1826 1827 0
-1827 1881 0
-73 -1827 1828 0
-1828 1882 0
-74 -1828 1829 0
-1829 1883 0
-75 -1829 1830 0
-1830 1884 0
-76 -1830 1831 0
-1831 1885 0
-77 -1831 1832 0
-1832 1886 0
-78 -1832 1833 0
-1833 1887 0
-79 -1833 1834 0
-1834 1888 0
-80 -1834 1835 0
-1835 1889 0
-81 -1835 0
-28 1836 0
-1836 1890 0
-29 -1836 1837 0
-1837 1891 0
-30 -1837 1838 0
-1838 1892 0
-31 -1838 1839 0
-1839 1893 0
-32 -1839 1840 0
-1840 1894 0
-33 -1840 1841 0
-1841 1895 0
-34 -1841 1842 0
-1842 1896 0
-35 -1842 1843 0
-1843 1897 0
-36 -1843 1844 0
-1844 1898 0
-37 -1844 1845 0
-1845 1899 0
-38 -1845 1846 0
-1846 1900 0
-39 -1846 1847 0
-1847 1901 0
-40 -1847 1848 0
-1848 1902 0
-41 -1848 1849 0
-1849 1903 0
-42 -1849 1850 0
-1850 1904 0
-43 -1850 1851 0
-1851 1905 0
-44 -1851 1852 0
-1852 1906 0
-45 -1852 1853 0
-1853 1907 0
-46 -1853 1854 0
-1854 1908 0
-47 -1854 1855 0
-1855 1909 0
-48 -1855 1856 0
-1856 1910 0
-49 -1856 1857 0
-1857 1911 0
-50 -1857 1858 0
-1858 1912 0
-51 -1858 1859 0
-1859 1913 0
-52 -1859 1860 0
-1860 1914 0
-53 -1860 1861 0
-1861 1915 0
-54 -1861 1862 0
-1862 1916 0
-55 -1862 1863 0
-1863 1917 0
-56 -1863 1864 0
-1864 1918 0
-57 -1864 1865 0
-1865 1919 0
-58 -1865 1866 0
-1866 1920 0
-59 -1866 1867 0
-1867 1921 0
-60 -1867 1868 0
-1868 1922 0
-61 -1868 1869 0
-1869 1923 0
-62 -1869 1870 0
-1870 1924 0
-63 -1870 1871 0
-1871 1925 0
-64 -1871 1872 0
-1872 1926 0
-65 -1872 1873 0
-1873 1927 0
-66 -1873 1874 0
-1874 1928 0
-67 -1874 1875 0
-1875 1929 0
-68 -1875 1876 0
-1876 1930 0
-69 -1876 1877 0
-1877 1931 0
-70 -1877 1878 0
-1878 1932 0
-71 -1878 1879 0
-1879 1933 0
-72 -1879 1880 0
-1880 1934 0
-73 -1880 1881 0
-1881 1935 0
-74 -1881 1882 0
-1882 1936 0
-75 -1882 1883 0
-1883 1937 0
-76 -1883 1884 0
-1884 1938 0
-77 -1884 1885 0
-1885 1939 0
-78 -1885 1886 0
-1886 1940 0
-79 -1886 1887 0
-1887 1941 0
-80 -1887 1888 0
-1888 1942 0
-81 -1888 1889 0
-1889 1943 0
-82 -1889 0
-29 1890 0
-1890 1944 0
-30 -1890 1891 0
-1891 1945 0
-31 -1891 1892 0
-1892 1946 0
-32 -1892 1893 0
-1893 1947 0
-33 -1893 1894 0
-1894 1948 0
-34 -1894 1895 0
-1895 1949 0
-35 -1895 1896 0
-1896 1950 0
-36 -1896 1897 0
-1897 1951 0
-37 -1897 1898 0
-1898 1952 0
-38 -1898 1899 0
-1899 1953 0
-39 -1899 1900 0
-1900 1954 0
-40 -1900 1901 0
-1901 1955 0
-41 -1901 1902 0
-1902 1956 0
-42 -1902 1903 0
-1903 1957 0
-43 -1903 1904 0
-1904 1958 0
-44 -1904 1905 0
-1905 1959 0
-45 -1905 1906 0
-1906 1960 0
-46 -1906 1907 0
-1907 1961 0
-47 -1907 1908 0
-1908 1962 0
-48 -1908 1909 0
-1909 1963 0
-49 -1909 1910 0
-1910 1964 0
-50 -1910 1911 0
-1911 1965 0
-51 -1911 1912 0
-1912 1966 0
-52 -1912 1913 0
-1913 1967 0
-53 -1913 1914 0
-1914 1968 0
-54 -1914 1915 0
-1915 1969 0
-55 -1915 1916 0
-1916 1970 0
-56 -1916 1917 0
-1917 1971 0
-57 -1917 1918 0
-1918 1972 0
-58 -1918 1919 0
-1919 1973 0
-59 -1919 1920 0
-1920 1974 0
-60 -1920 1921 0
-1921 1975 0
-61 -1921 1922 0
-1922 1976 0
-62 -1922 1923 0
-1923 1977 0
-63 -1923 1924 0
-1924 1978 0
-64 -1924 1925 0
-1925 1979 0
-65 -1925 1926 0
-1926 1980 0
-66 -1926 1927 0
-1927 1981 0
-67 -1927 1928 0
-1928 1982 0
-68 -1928 1929 0
-1929 1983 0
-69 -1929 1930 0
-1930 1984 0
-70 -1930 1931 0
-1931 1985 0
-71 -1931 1932 0
-1932 1986 0
-72 -1932 1933 0
-1933 1987 0
-73 -1933 1934 0
-1934 1988 0
-74 -1934 1935 0
-1935 1989 0
-75 -1935 1936 0
-1936 1990 0
-76 -1936 1937 0
-1937 1991 0
-77 -1937 1938 0
-1938 1992 0
-78 -1938 1939 0
-1939 1993 0
-79 -1939 1940 0
-1940 1994 0
-80 -1940 1941 0
-1941 1995 0
-81 -1941 1942 0
-1942 1996 0
-82 -1942 1943 0
-1943 1997 0
-83 -1943 0
-30 1944 0
-1944 1998 0
-31 -1944 1945 0
-1945 1999 0
-32 -1945 1946 0
-1946 2000 0
-33 -1946 1947 0
-1947 2001 0
-34 -1947 1948 0
-1948 2002 0
-35 -1948 1949 0
-1949 2003 0
-36 -1949 1950 0
-1950 2004 0
-37 -1950 1951 0
-1951 2005 0
-38 -1951 1952 0
-1952 2006 0
-39 -1952 1953 0
-1953 2007 0
-40 -1953 1954 0
-1954 2008 0
-41 -1954 1955 0
-1955 2009 0
-42 -1955 1956 0
-1956 2010 0
-43 -1956 1957 0
-1957 2011 0
-44 -1957 1958 0
-1958 2012 0
-45 -1958 1959 0
-1959 2013 0
-46 -1959 1960 0
-1960 2014 0
-47 -1960 1961 0
-1961 2015 0
-48 -1961 1962 0
-1962 2016 0
-49 -1962 1963 0
-1963 2017 0
-50 -1963 1964 0
-1964 2018 0
-51 -1964 1965 0
-1965 2019 0
-52 -1965 1966 0
-1966 2020 0
-53 -1966 1967 0
-1967 2021 0
-54 -1967 1968 0
-1968 2022 0
-55 -1968 1969 0
-1969 2023 0
-56 -1969 1970 0
-1970 2024 0
-57 -1970 1971 0
-1971 2025 0
-58 -1971 1972 0
-1972 2026 0
-59 -1972 1973 0
-1973 2027 0
-60 -1973 1974 0
-1974 2028 0
-61 -1974 1975 0
-1975 2029 0
-62 -1975 1976 0
-1976 2030 0
-63 -1976 1977 0
-1977 2031 0
-64 -1977 1978 0
-1978 2032 0
-65 -1978 1979 0
-1979 2033 0
-66 -1979 1980 0
-1980 2034 0
-67 -1980 1981 0
-1981 2035 0
-68 -1981 1982 0
-1982 2036 0
-69 -1982 1983 0
-1983 2037 0
-70 -1983 1984 0
-1984 2038 0
-71 -1984 1985 0
-1985 2039 0
-72 -1985 1986 0
-1986 2040 0
-73 -1986 1987 0
-1987 2041 0
-74 -1987 1988 0
-1988 2042 0
-75 -1988 1989 0
-1989 2043 0
-76 -1989 1990 0
-1990 2044 0
-77 -1990 1991 0
-1991 2045 0
-78 -1991 1992 0
-1992 2046 0
-79 -1992 1993 0
-1993 2047 0
-80 -1993 1994 0
-1994 2048 0
-81 -1994 1995 0
-1995 2049 0
-82 -1995 1996 0
-1996 2050 0
-83 -1996 1997 0
-1997 2051 0
-84 -1997 0
-31 1998 0
-1998 2052 0
-32 -1998 1999 0
-1999 2053 0
-33 -1999 2000 0
-2000 2054 0
-34 -2000 2001 0
-2001 2055 0
-35 -2001 2002 0
-2002 2056 0
-36 -2002 2003 0
-2003 2057 0
-37 -2003 2004 0
-2004 2058 0
-38 -2004 2005 0
-2005 2059 0
-39 -2005 2006 0
-2006 2060 0
-40 -2006 2007 0
-2007 2061 0
-41 -2007 2008 0
-2008 2062 0
-42 -2008 2009 0
-2009 2063 0
-43 -2009 2010 0
-2010 2064 0
-44 -2010 2011 0
-2011 2065 0
-45 -2011 2012 0
-2012 2066 0
-46 -2012 2013 0
-2013 2067 0
-47 -2013 2014 0
-2014 2068 0
-48 -2014 2015 0
-2015 2069 0
-49 -2015 2016 0
-2016 2070 0
-50 -2016 2017 0
-2017 2071 0
-51 -2017 2018 0
-2018 2072 0
-52 -2018 2019 0
-2019 2073 0
-53 -2019 2020 0
-2020 2074 0
-54 -2020 2021 0
-2021 2075 0
-55 -2021 2022 0
-2022 2076 0
-56 -2022 2023 0
-2023 2077 0
-57 -2023 2024 0
-2024 2078 0
-58 -2024 2025 0
-2025 2079 0
-59 -2025 2026 0
-2026 2080 0
-60 -2026 2027 0
-2027 2081 0
-61 -2027 2028 0
-2028 2082 0
-62 -2028 2029 0
-2029 2083 0
-63 -2029 2030 0
-2030 2084 0
-64 -2030 2031 0
-2031 2085 0
-65 -2031 2032 0
-2032 2086 0
-66 -2032 2033 0
-2033 2087 0
-67 -2033 2034 0
-2034 2088 0
-68 -2034 2035 0
-2035 2089 0
-69 -2035 2036 0
-2036 2090 0
-70 -2036 2037 0
-2037 2091 0
-71 -2037 2038 0
-2038 2092 0
-72 -2038 2039 0
-2039 2093 0
-73 -2039 2040 0
-2040 2094 0
-74 -2040 2041 0
-2041 2095 0
-75 -2041 2042 0
-2042 2096 0
-76 -2042 2043 0
-2043 2097 0
-77 -2043 2044 0
-2044 2098 0
-78 -2044 2045 0
-2045 2099 0
-79 -2045 2046 0
-2046 2100 0
-80 -2046 2047 0
-2047 2101 0
-81 -2047 2048 0
-2048 2102 0
-82 -2048 2049 0
-2049 2103 0
-83 -2049 2050 0
-2050 2104 0
-84 -2050 2051 0
-2051 2105 0
-85 -2051 0
-32 2052 0
-2052 2106 0
-33 -2052 2053 0
-2053 2107 0
-34 -2053 2054 0
-2054 2108 0
-35 -2054 2055 0
-2055 2109 0
-36 -2055 2056 0
-2056 2110 0
-37 -2056 2057 0
-2057 2111 0
-38 -2057 2058 0
-2058 2112 0
-39 -2058 2059 0
-2059 2113 0
-40 -2059 2060 0
-2060 2114 0
-41 -2060 2061 0
-2061 2115 0
-42 -2061 2062 0
-2062 2116 0
-43 -2062 2063 0
-2063 2117 0
-44 -2063 2064 0
-2064 2118 0
-45 -2064 2065 0
-2065 2119 0
-46 -2065 2066 0
-2066 2120 0
-47 -2066 2067 0
-2067 2121 0
-48 -2067 2068 0
-2068 2122 0
-49 -2068 2069 0
-2069 2123 0
-50 -2069 2070 0
-2070 2124 0
-51 -2070 2071 0
-2071 2125 0
-52 -2071 2072 0
-2072 2126 0
-53 -2072 2073 0
-2073 2127 0
-54 -2073 2074 0
-2074 2128 0
-55 -2074 2075 0
-2075 2129 0
-56 -2075 2076 0
-2076 2130 0
-57 -2076 2077 0
-2077 2131 0
-58 -2077 2078 0
-2078 2132 0
-59 -2078 2079 0
-2079 2133 0
-60 -2079 2080 0
-2080 2134 0
-61 -2080 2081 0
-2081 2135 0
-62 -2081 2082 0
-2082 2136 0
-63 -2082 2083 0
-2083 2137 0
-64 -2083 2084 0
-2084 2138 0
-65 -2084 2085 0
-2085 2139 0
-66 -2085 2086 0
-2086 2140 0
-67 -2086 2087 0
-2087 2141 0
-68 -2087 2088 0
-2088 2142 0
-69 -2088 2089 0
-2089 2143 0
-70 -2089 2090 0
-2090 2144 0
-71 -2090 2091 0
-2091 2145 0
-72 -2091 2092 0
-2092 2146 0
-73 -2092 2093 0
-2093 2147 0
-74 -2093 2094 0
-2094 2148 0
-75 -2094 2095 0
-2095 2149 0
-76 -2095 2096 0
-2096 2150 0
-77 -2096 2097 0
-2097 2151 0
-78 -2097 2098 0
-2098 2152 0
-79 -2098 2099 0
-2099 2153 0
-80 -2099 2100 0
-2100 2154 0
-81 -2100 2101 0
-2101 2155 0
-82 -2101 2102 0
-2102 2156 0
-83 -2102 2103 0
-2103 2157 0
-84 -2103 2104 0
-2104 2158 0
-85 -2104 2105 0
-2105 2159 0
-86 -2105 0
-33 2106 0
-2106 2160 0
-34 -2106 2107 0
-2107 2161 0
-35 -2107 2108 0
-2108 2162 0
-36 -2108 2109 0
-2109 2163 0
-37 -2109 2110 0
-2110 2164 0
-38 -2110 2111 0
-2111 2165 0
-39 -2111 2112 0
-2112 2166 0
-40 -2112 2113 0
-2113 2167 0
-41 -2113 2114 0
-2114 2168 0
-42 -2114 2115 0
-2115 2169 0
-43 -2115 2116 0
-2116 2170 0
-44 -2116 2117 0
-2117 2171 0
-45 -2117 2118 0
-2118 2172 0
-46 -2118 2119 0
-2119 2173 0
-47 -2119 2120 0
-2120 2174 0
-48 -2120 2121 0
-2121 2175 0
-49 -2121 2122 0
-2122 2176 0
-50 -2122 2123 0
-2123 2177 0
-51 -2123 2124 0
-2124 2178 0
-52 -2124 2125 0
-2125 2179 0
-53 -2125 2126 0
-2126 2180 0
-54 -2126 2127 0
-2127 2181 0
-55 -2127 2128 0
-2128 2182 0
-56 -2128 2129 0
-2129 2183 0
-57 -2129 2130 0
-2130 2184 0
-58 -2130 2131 0
-2131 2185 0
-59 -2131 2132 0
-2132 2186 0
-60 -2132 2133 0
-2133 2187 0
-61 -2133 2134 0
-2134 2188 0
-62 -2134 2135 0
-2135 2189 0
-63 -2135 2136 0
-2136 2190 0
-64 -2136 2137 0
-2137 2191 0
-65 -2137 2138 0
-2138 2192 0
-66 -2138 2139 0
-2139 2193 0
-67 -2139 2140 0
-2140 2194 0
-68 -2140 2141 0
-2141 2195 0
-69 -2141 2142 0
-2142 2196 0
-70 -2142 2143 0
-2143 2197 0
-71 -2143 2144 0
-2144 2198 0
-72 -2144 2145 0
-2145 2199 0
-73 -2145 2146 0
-2146 2200 0
-74 -2146 2147 0
-2147 2201 0
-75 -2147 2148 0
-2148 2202 0
-76 -2148 2149 0
-2149 2203 0
-77 -2149 2150 0
-2150 2204 0
-78 -2150 2151 0
-2151 2205 0
-79 -2151 2152 0
-2152 2206 0
-80 -2152 2153 0
-2153 2207 0
-81 -2153 2154 0
-2154 2208 0
-82 -2154 2155 0
-2155 2209 0
-83 -2155 2156 0
-2156 2210 0
-84 -2156 2157 0
-2157 2211 0
-85 -2157 2158 0
-2158 2212 0
-86 -2158 2159 0
-2159 2213 0
-87 -2159 0
-34 2160 0
-2160 2214 0
-35 -2160 2161 0
-2161 2215 0
-36 -2161 2162 0
-2162 2216 0
-37 -2162 2163 0
-2163 2217 0
-38 -2163 2164 0
-2164 2218 0
-39 -2164 2165 0
-2165 2219 0
-40 -2165 2166 0
-2166 2220 0
-41 -2166 2167 0
-2167 2221 0
-42 -2167 2168 0
-2168 2222 0
-43 -2168 2169 0
-2169 2223 0
-44 -2169 2170 0
-2170 2224 0
-45 -2170 2171 0
-2171 2225 0
-46 -2171 2172 0
-2172 2226 0
-47 -2172 2173 0
-2173 2227 0
-48 -2173 2174 0
-2174 2228 0
-49 -2174 2175 0
-2175 2229 0
-50 -2175 2176 0
-2176 2230 0
-51 -2176 2177 0
-2177 2231 0
-52 -2177 2178 0
-2178 2232 0
-53 -2178 2179 0
-2179 2233 0
-54 -2179 2180 0
-2180 2234 0
-55 -2180 2181 0
-2181 2235 0
-56 -2181 2182 0
-2182 2236 0
-57 -2182 2183 0
-2183 2237 0
-58 -2183 2184 0
-2184 2238 0
-59 -2184 2185 0
-2185 2239 0
-60 -2185 2186 0
-2186 2240 0
-61 -2186 2187 0
-2187 2241 0
-62 -2187 2188 0
-2188 2242 0
-63 -2188 2189 0
-2189 2243 0
-64 -2189 2190 0
-2190 2244 0
-65 -2190 2191 0
-2191 2245 0
-66 -2191 2192 0
-2192 2246 0
-67 -2192 2193 0
-2193 2247 0
-68 -2193 2194 0
-2194 2248 0
-69 -2194 2195 0
-2195 2249 0
-70 -2195 2196 0
-2196 2250 0
-71 -2196 2197 0
-2197 2251 0
-72 -2197 2198 0
-2198 2252 0
-73 -2198 2199 0
-2199 2253 0
-74 -2199 2200 0
-2200 2254 0
-75 -2200 2201 0
-2201 2255 0
-76 -2201 2202 0
-2202 2256 0
-77 -2202 2203 0
-2203 2257 0
-78 -2203 2204 0
-2204 2258 0
-79 -2204 2205 0
-2205 2259 0
-80 -2205 2206 0
-2206 2260 0
-81 -2206 2207 0
-2207 2261 0
-82 -2207 2208 0
-2208 2262 0
-83 -2208 2209 0
-2209 2263 0
-84 -2209 2210 0
-2210 2264 0
-85 -2210 2211 0
-2211 2265 0
-86 -2211 2212 0
-2212 2266 0
-87 -2212 2213 0
-2213 2267 0
-88 -2213 0
-35 2214 0
-2214 2268 0
-36 -2214 2215 0
-2215 2269 0
-37 -2215 2216 0
-2216 2270 0
-38 -2216 2217 0
-2217 2271 0
-39 -2217 2218 0
-2218 2272 0
-40 -2218 2219 0
-2219 2273 0
-41 -2219 2220 0
-2220 2274 0
-42 -2220 2221 0
-2221 2275 0
-43 -2221 2222 0
-2222 2276 0
-44 -2222 2223 0
-2223 2277 0
-45 -2223 2224 0
-2224 2278 0
-46 -2224 2225 0
-2225 2279 0
-47 -2225 2226 0
-2226 2280 0
-48 -2226 2227 0
-2227 2281 0
-49 -2227 2228 0
-2228 2282 0
-50 -2228 2229 0
-2229 2283 0
-51 -2229 2230 0
-2230 2284 0
-52 -2230 2231 0
-2231 2285 0
-53 -2231 2232 0
-2232 2286 0
-54 -2232 2233 0
-2233 2287 0
-55 -2233 2234 0
-2234 2288 0
-56 -2234 2235 0
-2235 2289 0
-57 -2235 2236 0
-2236 2290 0
-58 -2236 2237 0
-2237 2291 0
-59 -2237 2238 0
-2238 2292 0
-60 -2238 2239 0
-2239 2293 0
-61 -2239 2240 0
-2240 2294 0
-62 -2240 2241 0
-2241 2295 0
-63 -2241 2242 0
-2242 2296 0
-64 -2242 2243 0
-2243 2297 0
-65 -2243 2244 0
-2244 2298 0
-66 -2244 2245 0
-2245 2299 0
-67 -2245 2246 0
-2246 2300 0
-68 -2246 2247 0
-2247 2301 0
-69 -2247 2248 0
-2248 2302 0
-70 -2248 2249 0
-2249 2303 0
-71 -2249 2250 0
-2250 2304 0
-72 -2250 2251 0
-2251 2305 0
-73 -2251 2252 0
-2252 2306 0
-74 -2252 2253 0
-2253 2307 0
-75 -2253 2254 0
-2254 2308 0
-76 -2254 2255 0
-2255 2309 0
-77 -2255 2256 0
-2256 2310 0
-78 -2256 2257 0
-2257 2311 0
-79 -2257 2258 0
-2258 2312 0
-80 -2258 2259 0
-2259 2313 0
-81 -2259 2260 0
-2260 2314 0
-82 -2260 2261 0
-2261 2315 0
-83 -2261 2262 0
-2262 2316 0
-84 -2262 2263 0
-2263 2317 0
-85 -2263 2264 0
-2264 2318 0
-86 -2264 2265 0
-2265 2319 0
-87 -2265 2266 0
-2266 2320 0
-88 -2266 2267 0
-2267 2321 0
-89 -2267 0
-36 2268 0
-2268 2322 0
-37 -2268 2269 0
-2269 2323 0
-38 -2269 2270 0
-2270 2324 0
-39 -2270 2271 0
-2271 2325 0
-40 -2271 2272 0
-2272 2326 0
-41 -2272 2273 0
-2273 2327 0
-42 -2273 2274 0
-2274 2328 0
-43 -2274 2275 0
-2275 2329 0
-44 -2275 2276 0
-2276 2330 0
-45 -2276 2277 0
-2277 2331 0
-46 -2277 2278 0
-2278 2332 0
-47 -2278 2279 0
-2279 2333 0
-48 -2279 2280 0
-2280 2334 0
-49 -2280 2281 0
-2281 2335 0
-50 -2281 2282 0
-2282 2336 0
-51 -2282 2283 0
-2283 2337 0
-52 -2283 2284 0
-2284 2338 0
-53 -2284 2285 0
-2285 2339 0
-54 -2285 2286 0
-2286 2340 0
-55 -2286 2287 0
-2287 2341 0
-56 -2287 2288 0
-2288 2342 0
-57 -2288 2289 0
-2289 2343 0
-58 -2289 2290 0
-2290 2344 0
-59 -2290 2291 0
-2291 2345 0
-60 -2291 2292 0
-2292 2346 0
-61 -2292 2293 0
-2293 2347 0
-62 -2293 2294 0
-2294 2348 0
-63 -2294 2295 0
-2295 2349 0
-64 -2295 2296 0
-2296 2350 0
-65 -2296 2297 0
-2297 2351 0
-66 -2297 2298 0
-2298 2352 0
-67 -2298 2299 0
-2299 2353 0
-68 -2299 2300 0
-2300 2354 0
-69 -2300 2301 0
-2301 2355 0
-70 -2301 2302 0
-2302 2356 0
-71 -2302 2303 0
-2303 2357 0
-72 -2303 2304 0
-2304 2358 0
-73 -2304 2305 0
-2305 2359 0
-74 -2305 2306 0
-2306 2360 0
-75 -2306 2307 0
-2307 2361 0
-76 -2307 2308 0
-2308 2362 0
-77 -2308 2309 0
-2309 2363 0
-78 -2309 2310 0
-2310 2364 0
-79 -2310 2311 0
-2311 2365 0
-80 -2311 2312 0
-2312 2366 0
-81 -2312 2313 0
-2313 2367 0
-82 -2313 2314 0
-2314 2368 0
-83 -2314 2315 0
-2315 2369 0
-84 -2315 2316 0
-2316 2370 0
-85 -2316 2317 0
-2317 2371 0
-86 -2317 2318 0
-2318 2372 0
-87 -2318 2319 0
-2319 2373 0
-88 -2319 2320 0
-2320 2374 0
-89 -2320 2321 0
-2321 2375 0
-90 -2321 0
-37 2322 0
-2322 2376 0
-38 -2322 2323 0
-2323 2377 0
-39 -2323 2324 0
-2324 2378 0
-40 -2324 2325 0
-2325 2379 0
-41 -2325 2326 0
-2326 2380 0
-42 -2326 2327 0
-2327 2381 0
-43 -2327 2328 0
-2328 2382 0
-44 -2328 2329 0
-2329 2383 0
-45 -2329 2330 0
-2330 2384 0
-46 -2330 2331 0
-2331 2385 0
-47 -2331 2332 0
-2332 2386 0
-48 -2332 2333 0
-2333 2387 0
-49 -2333 2334 0
-2334 2388 0
-50 -2334 2335 0
-2335 2389 0
-51 -2335 2336 0
-2336 2390 0
-52 -2336 2337 0
-2337 2391 0
-53 -2337 2338 0
-2338 2392 0
-54 -2338 2339 0
-2339 2393 0
-55 -2339 2340 0
-2340 2394 0
-56 -2340 2341 0
-2341 2395 0
-57 -2341 2342 0
-2342 2396 0
-58 -2342 2343 0
-2343 2397 0
-59 -2343 2344 0
-2344 2398 0
-60 -2344 2345 0
-2345 2399 0
-61 -2345 2346 0
-2346 2400 0
-62 -2346 2347 0
-2347 2401 0
-63 -2347 2348 0
-2348 2402 0
-64 -2348 2349 0
-2349 2403 0
-65 -2349 2350 0
-2350 2404 0
-66 -2350 2351 0
-2351 2405 0
-67 -2351 2352 0
-2352 2406 0
-68 -2352 2353 0
-2353 2407 0
-69 -2353 2354 0
-2354 2408 0
-70 -2354 2355 0
-2355 2409 0
-71 -2355 2356 0
-2356 2410 0
-72 -2356 2357 0
-2357 2411 0
-73 -2357 2358 0
-2358 2412 0
-74 -2358 2359 0
-2359 2413 0
-75 -2359 2360 0
-2360 2414 0
-76 -2360 2361 0
-2361 2415 0
-77 -2361 2362 0
-2362 2416 0
-78 -2362 2363 0
-2363 2417 0
-79 -2363 2364 0
-2364 2418 0
-80 -2364 2365 0
-2365 2419 0
-81 -2365 2366 0
-2366 2420 0
-82 -2366 2367 0
-2367 2421 0
-83 -2367 2368 0
-2368 2422 0
-84 -2368 2369 0
-2369 2423 0
-85 -2369 2370 0
-2370 2424 0
-86 -2370 2371 0
-2371 2425 0
-87 -2371 2372 0
-2372 2426 0
-88 -2372 2373 0
-2373 2427 0
-89 -2373 2374 0
-2374 2428 0
-90 -2374 2375 0
-2375 2429 0
-91 -2375 0
-38 2376 0
-2376 2430 0
-39 -2376 2377 0
-2377 2431 0
-40 -2377 2378 0
-2378 2432 0
-41 -2378 2379 0
-2379 2433 0
-42 -2379 2380 0
-2380 2434 0
-43 -2380 2381 0
-2381 2435 0
-44 -2381 2382 0
-2382 2436 0
-45 -2382 2383 0
-2383 2437 0
-46 -2383 2384 0
-2384 2438 0
-47 -2384 2385 0
-2385 2439 0
-48 -2385 2386 0
-2386 2440 0
-49 -2386 2387 0
-2387 2441 0
-50 -2387 2388 0
-2388 2442 0
-51 -2388 2389 0
-2389 2443 0
-52 -2389 2390 0
-2390 2444 0
-53 -2390 2391 0
-2391 2445 0
-54 -2391 2392 0
-2392 2446 0
-55 -2392 2393 0
-2393 2447 0
-56 -2393 2394 0
-2394 2448 0
-57 -2394 2395 0
-2395 2449 0
-58 -2395 2396 0
-2396 2450 0
-59 -2396 2397 0
-2397 2451 0
-60 -2397 2398 0
-2398 2452 0
-61 -2398 2399 0
-2399 2453 0
-62 -2399 2400 0
-2400 2454 0
-63 -2400 2401 0
-2401 2455 0
-64 -2401 2402 0
-2402 2456 0
-65 -2402 2403 0
-2403 2457 0
-66 -2403 2404 0
-2404 2458 0
-67 -2404 2405 0
-2405 2459 0
-68 -2405 2406 0
-2406 2460 0
-69 -2406 2407 0
-2407 2461 0
-70 -2407 2408 0
-2408 2462 0
-71 -2408 2409 0
-2409 2463 0
-72 -2409 2410 0
-2410 2464 0
-73 -2410 2411 0
-2411 2465 0
-74 -2411 2412 0
-2412 2466 0
-75 -2412 2413 0
-2413 2467 0
-76 -2413 2414 0
-2414 2468 0
-77 -2414 2415 0
-2415 2469 0
-78 -2415 2416 0
-2416 2470 0
-79 -2416 2417 0
-2417 2471 0
-80 -2417 2418 0
-2418 2472 0
-81 -2418 2419 0
-2419 2473 0
-82 -2419 2420 0
-2420 2474 0
-83 -2420 2421 0
-2421 2475 0
-84 -2421 2422 0
-2422 2476 0
-85 -2422 2423 0
-2423 2477 0
-86 -2423 2424 0
-2424 2478 0
-87 -2424 2425 0
-2425 2479 0
-88 -2425 2426 0
-2426 2480 0
-89 -2426 2427 0
-2427 2481 0
-90 -2427 2428 0
-2428 2482 0
-91 -2428 2429 0
-2429 2483 0
-92 -2429 0
-39 2430 0
-2430 2484 0
-40 -2430 2431 0
-2431 2485 0
-41 -2431 2432 0
-2432 2486 0
-42 -2432 2433 0
-2433 2487 0
-43 -2433 2434 0
-2434 2488 0
-44 -2434 2435 0
-2435 2489 0
-45 -2435 2436 0
-2436 2490 0
-46 -2436 2437 0
-2437 2491 0
-47 -2437 2438 0
-2438 2492 0
-48 -2438 2439 0
-2439 2493 0
-49 -2439 2440 0
-2440 2494 0
-50 -2440 2441 0
-2441 2495 0
-51 -2441 2442 0
-2442 2496 0
-52 -2442 2443 0
-2443 2497 0
-53 -2443 2444 0
-2444 2498 0
-54 -2444 2445 0
-2445 2499 0
-55 -2445 2446 0
-2446 2500 0
-56 -2446 2447 0
-2447 2501 0
-57 -2447 2448 0
-2448 2502 0
-58 -2448 2449 0
-2449 2503 0
-59 -2449 2450 0
-2450 2504 0
-60 -2450 2451 0
-2451 2505 0
-61 -2451 2452 0
-2452 2506 0
-62 -2452 2453 0
-2453 2507 0
-63 -2453 2454 0
-2454 2508 0
-64 -2454 2455 0
-2455 2509 0
-65 -2455 2456 0
-2456 2510 0
-66 -2456 2457 0
-2457 2511 0
-67 -2457 2458 0
-2458 2512 0
-68 -2458 2459 0
-2459 2513 0
-69 -2459 2460 0
-2460 2514 0
-70 -2460 2461 0
-2461 2515 0
-71 -2461 2462 0
-2462 2516 0
-72 -2462 2463 0
-2463 2517 0
-73 -2463 2464 0
-2464 2518 0
-74 -2464 2465 0
-2465 2519 0
-75 -2465 2466 0
-2466 2520 0
-76 -2466 2467 0
-2467 2521 0
-77 -2467 2468 0
-2468 2522 0
-78 -2468 2469 0
-2469 2523 0
-79 -2469 2470 0
-2470 2524 0
-80 -2470 2471 0
-2471 2525 0
-81 -2471 2472 0
-2472 2526 0
-82 -2472 2473 0
-2473 2527 0
-83 -2473 2474 0
-2474 2528 0
-84 -2474 2475 0
-2475 2529 0
-85 -2475 2476 0
-2476 2530 0
-86 -2476 2477 0
-2477 2531 0
-87 -2477 2478 0
-2478 2532 0
-88 -2478 2479 0
-2479 2533 0
-89 -2479 2480 0
-2480 2534 0
-90 -2480 2481 0
-2481 2535 0
-91 -2481 2482 0
-2482 2536 0
-92 -2482 2483 0
-2483 2537 0
-93 -2483 0
-40 2484 0
-2484 2538 0
-41 -2484 2485 0
-2485 2539 0
-42 -2485 2486 0
-2486 2540 0
-43 -2486 2487 0
-2487 2541 0
-44 -2487 2488 0
-2488 2542 0
-45 -2488 2489 0
-2489 2543 0
-46 -2489 2490 0
-2490 2544 0
-47 -2490 2491 0
-2491 2545 0
-48 -2491 2492 0
-2492 2546 0
-49 -2492 2493 0
-2493 2547 0
-50 -2493 2494 0
-2494 2548 0
-51 -2494 2495 0
-2495 2549 0
-52 -2495 2496 0
-2496 2550 0
-53 -2496 2497 0
-2497 2551 0
-54 -2497 2498 0
-2498 2552 0
-55 -2498 2499 0
-2499 2553 0
-56 -2499 2500 0
-2500 2554 0
-57 -2500 2501 0
-2501 2555 0
-58 -2501 2502 0
-2502 2556 0
-59 -2502 2503 0
-2503 2557 0
-60 -2503 2504 0
-2504 2558 0
-61 -2504 2505 0
-2505 2559 0
-62 -2505 2506 0
-2506 2560 0
-63 -2506 2507 0
-2507 2561 0
-64 -2507 2508 0
-2508 2562 0
-65 -2508 2509 0
-2509 2563 0
-66 -2509 2510 0
-2510 2564 0
-67 -2510 2511 0
-2511 2565 0
-68 -2511 2512 0
-2512 2566 0
-69 -2512 2513 0
-2513 2567 0
-70 -2513 2514 0
-2514 2568 0
-71 -2514 2515 0
-2515 2569 0
-72 -2515 2516 0
-2516 2570 0
-73 -2516 2517 0
-2517 2571 0
-74 -2517 2518 0
-2518 2572 0
-75 -2518 2519 0
-2519 2573 0
-76 -2519 2520 0
-2520 2574 0
-77 -2520 2521 0
-2521 2575 0
-78 -2521 2522 0
-2522 2576 0
-79 -2522 2523 0
-2523 2577 0
-80 -2523 2524 0
-2524 2578 0
-81 -2524 2525 0
-2525 2579 0
-82 -2525 2526 0
-2526 2580 0
-83 -2526 2527 0
-2527 2581 0
-84 -2527 2528 0
-2528 2582 0
-85 -2528 2529 0
-2529 2583 0
-86 -2529 2530 0
-2530 2584 0
-87 -2530 2531 0
-2531 2585 0
-88 -2531 2532 0
-2532 2586 0
-89 -2532 2533 0
-2533 2587 0
-90 -2533 2534 0
-2534 2588 0
-91 -2534 2535 0
-2535 2589 0
-92 -2535 2536 0
-2536 2590 0
-93 -2536 2537 0
-2537 2591 0
-94 -2537 0
-41 2538 0
-2538 2592 0
-42 -2538 2539 0
-2539 2593 0
-43 -2539 2540 0
-2540 2594 0
-44 -2540 2541 0
-2541 2595 0
-45 -2541 2542 0
-2542 2596 0
-46 -2542 2543 0
-2543 2597 0
-47 -2543 2544 0
-2544 2598 0
-48 -2544 2545 0
-2545 2599 0
-49 -2545 2546 0
-2546 2600 0
-50 -2546 2547 0
-2547 2601 0
-51 -2547 2548 0
-2548 2602 0
-52 -2548 2549 0
-2549 2603 0
-53 -2549 2550 0
-2550 2604 0
-54 -2550 2551 0
-2551 2605 0
-55 -2551 2552 0
-2552 2606 0
-56 -2552 2553 0
-2553 2607 0
-57 -2553 2554 0
-2554 2608 0
-58 -2554 2555 0
-2555 2609 0
-59 -2555 2556 0
-2556 2610 0
-60 -2556 2557 0
-2557 2611 0
-61 -2557 2558 0
-2558 2612 0
-62 -2558 2559 0
-2559 2613 0
-63 -2559 2560 0
-2560 2614 0
-64 -2560 2561 0
-2561 2615 0
-65 -2561 2562 0
-2562 2616 0
-66 -2562 2563 0
-2563 2617 0
-67 -2563 2564 0
-2564 2618 0
-68 -2564 2565 0
-2565 2619 0
-69 -2565 2566 0
-2566 2620 0
-70 -2566 2567 0
-2567 2621 0
-71 -2567 2568 0
-2568 2622 0
-72 -2568 2569 0
-2569 2623 0
-73 -2569 2570 0
-2570 2624 0
-74 -2570 2571 0
-2571 2625 0
-75 -2571 2572 0
-2572 2626 0
-76 -2572 2573 0
-2573 2627 0
-77 -2573 2574 0
-2574 2628 0
-78 -2574 2575 0
-2575 2629 0
-79 -2575 2576 0
-2576 2630 0
-80 -2576 2577 0
-2577 2631 0
-81 -2577 2578 0
-2578 2632 0
-82 -2578 2579 0
-2579 2633 0
-83 -2579 2580 0
-2580 2634 0
-84 -2580 2581 0
-2581 2635 0
-85 -2581 2582 0
-2582 2636 0
-86 -2582 2583 0
-2583 2637 0
-87 -2583 2584 0
-2584 2638 0
-88 -2584 2585 0
-2585 2639 0
-89 -2585 2586 0
-2586 2640 0
-90 -2586 2587 0
-2587 2641 0
-91 -2587 2588 0
-2588 2642 0
-92 -2588 2589 0
-2589 2643 0
-93 -2589 2590 0
-2590 2644 0
-94 -2590 2591 0
-2591 2645 0
-95 -2591 0
-42 2592 0
-2592 2646 0
-43 -2592 2593 0
-2593 2647 0
-44 -2593 2594 0
-2594 2648 0
-45 -2594 2595 0
-2595 2649 0
-46 -2595 2596 0
-2596 2650 0
-47 -2596 2597 0
-2597 2651 0
-48 -2597 2598 0
-2598 2652 0
-49 -2598 2599 0
-2599 2653 0
-50 -2599 2600 0
-2600 2654 0
-51 -2600 2601 0
-2601 2655 0
-52 -2601 2602 0
-2602 2656 0
-53 -2602 2603 0
-2603 2657 0
-54 -2603 2604 0
-2604 2658 0
-55 -2604 2605 0
-2605 2659 0
-56 -2605 2606 0
-2606 2660 0
-57 -2606 2607 0
-2607 2661 0
-58 -2607 2608 0
-2608 2662 0
-59 -2608 2609 0
-2609 2663 0
-60 -2609 2610 0
-2610 2664 0
-61 -2610 2611 0
-2611 2665 0
-62 -2611 2612 0
-2612 2666 0
-63 -2612 2613 0
-2613 2667 0
-64 -2613 2614 0
-2614 2668 0
-65 -2614 2615 0
-2615 2669 0
-66 -2615 2616 0
-2616 2670 0
-67 -2616 2617 0
-2617 2671 0
-68 -2617 2618 0
-2618 2672 0
-69 -2618 2619 0
-2619 2673 0
-70 -2619 2620 0
-2620 2674 0
-71 -2620 2621 0
-2621 2675 0
-72 -2621 2622 0
-2622 2676 0
-73 -2622 2623 0
-2623 2677 0
-74 -2623 2624 0
-2624 2678 0
-75 -2624 2625 0
-2625 2679 0
-76 -2625 2626 0
-2626 2680 0
-77 -2626 2627 0
-2627 2681 0
-78 -2627 2628 0
-2628 2682 0
-79 -2628 2629 0
-2629 2683 0
-80 -2629 2630 0
-2630 2684 0
-81 -2630 2631 0
-2631 2685 0
-82 -2631 2632 0
-2632 2686 0
-83 -2632 2633 0
-2633 2687 0
-84 -2633 2634 0
-2634 2688 0
-85 -2634 2635 0
-2635 2689 0
-86 -2635 2636 0
-2636 2690 0
-87 -2636 2637 0
-2637 2691 0
-88 -2637 2638 0
-2638 2692 0
-89 -2638 2639 0
-2639 2693 0
-90 -2639 2640 0
-2640 2694 0
-91 -2640 2641 0
-2641 2695 0
-92 -2641 2642 0
-2642 2696 0
-93 -2642 2643 0
-2643 2697 0
-94 -2643 2644 0
-2644 2698 0
-95 -2644 2645 0
-2645 2699 0
-96 -2645 0
-43 2646 0
-2646 2700 0
-44 -2646 2647 0
-2647 2701 0
-45 -2647 2648 0
-2648 2702 0
-46 -2648 2649 0
-2649 2703 0
-47 -2649 2650 0
-2650 2704 0
-48 -2650 2651 0
-2651 2705 0
-49 -2651 2652 0
-2652 2706 0
-50 -2652 2653 0
-2653 2707 0
-51 -2653 2654 0
-2654 2708 0
-52 -2654 2655 0
-2655 2709 0
-53 -2655 2656 0
-2656 2710 0
-54 -2656 2657 0
-2657 2711 0
-55 -2657 2658 0
-2658 2712 0
-56 -2658 2659 0
-2659 2713 0
-57 -2659 2660 0
-2660 2714 0
-58 -2660 2661 0
-2661 2715 0
-59 -2661 2662 0
-2662 2716 0
-60 -2662 2663 0
-2663 2717 0
-61 -2663 2664 0
-2664 2718 0
-62 -2664 2665 0
-2665 2719 0
-63 -2665 2666 0
-2666 2720 0
-64 -2666 2667 0
-2667 2721 0
-65 -2667 2668 0
-2668 2722 0
-66 -2668 2669 0
-2669 2723 0
-67 -2669 2670 0
-2670 2724 0
-68 -2670 2671 0
-2671 2725 0
-69 -2671 2672 0
-2672 2726 0
-70 -2672 2673 0
-2673 2727 0
-71 -2673 2674 0
-2674 2728 0
-72 -2674 2675 0
-2675 2729 0
-73 -2675 2676 0
-2676 2730 0
-74 -2676 2677 0
-2677 2731 0
-75 -2677 2678 0
-2678 2732 0
-76 -2678 2679 0
-2679 2733 0
-77 -2679 2680 0
-2680 2734 0
-78 -2680 2681 0
-2681 2735 0
-79 -2681 2682 0
-2682 2736 0
-80 -2682 2683 0
-2683 2737 0
-81 -2683 2684 0
-2684 2738 0
-82 -2684 2685 0
-2685 2739 0
-83 -2685 2686 0
-2686 2740 0
-84 -2686 2687 0
-2687 2741 0
-85 -2687 2688 0
-2688 2742 0
-86 -2688 2689 0
-2689 2743 0
-87 -2689 2690 0
-2690 2744 0
-88 -2690 2691 0
-2691 2745 0
-89 -2691 2692 0
-2692 2746 0
-90 -2692 2693 0
-2693 2747 0
-91 -2693 2694 0
-2694 2748 0
-92 -2694 2695 0
-2695 2749 0
-93 -2695 2696 0
-2696 2750 0
-94 -2696 2697 0
-2697 2751 0
-95 -2697 2698 0
-2698 2752 0
-96 -2698 2699 0
-2699 2753 0
-97 -2699 0
-44 2700 0
-2700 2754 0
-45 -2700 2701 0
-2701 2755 0
-46 -2701 2702 0
-2702 2756 0
-47 -2702 2703 0
-2703 2757 0
-48 -2703 2704 0
-2704 2758 0
-49 -2704 2705 0
-2705 2759 0
-50 -2705 2706 0
-2706 2760 0
-51 -2706 2707 0
-2707 2761 0
-52 -2707 2708 0
-2708 2762 0
-53 -2708 2709 0
-2709 2763 0
-54 -2709 2710 0
-2710 2764 0
-55 -2710 2711 0
-2711 2765 0
-56 -2711 2712 0
-2712 2766 0
-57 -2712 2713 0
-2713 2767 0
-58 -2713 2714 0
-2714 2768 0
-59 -2714 2715 0
-2715 2769 0
-60 -2715 2716 0
-2716 2770 0
-61 -2716 2717 0
-2717 2771 0
-62 -2717 2718 0
-2718 2772 0
-63 -2718 2719 0
-2719 2773 0
-64 -2719 2720 0
-2720 2774 0
-65 -2720 2721 0
-2721 2775 0
-66 -2721 2722 0
-2722 2776 0
-67 -2722 2723 0
-2723 2777 0
-68 -2723 2724 0
-2724 2778 0
-69 -2724 2725 0
-2725 2779 0
-70 -2725 2726 0
-2726 2780 0
-71 -2726 2727 0
-2727 2781 0
-72 -2727 2728 0
-2728 2782 0
-73 -2728 2729 0
-2729 2783 0
-74 -2729 2730 0
-2730 2784 0
-75 -2730 2731 0
-2731 2785 0
-76 -2731 2732 0
-2732 2786 0
-77 -2732 2733 0
-2733 2787 0
-78 -2733 2734 0
-2734 2788 0
-79 -2734 2735 0
-2735 2789 0
-80 -2735 2736 0
-2736 2790 0
-81 -2736 2737 0
-2737 2791 0
-82 -2737 2738 0
-2738 2792 0
-83 -2738 2739 0
-2739 2793 0
-84 -2739 2740 0
-2740 2794 0
-85 -2740 2741 0
-2741 2795 0
-86 -2741 2742 0
-2742 2796 0
-87 -2742 2743 0
-2743 2797 0
-88 -2743 2744 0
-2744 2798 0
-89 -2744 2745 0
-2745 2799 0
-90 -2745 2746 0
-2746 2800 0
-91 -2746 2747 0
-2747 2801 0
-92 -2747 2748 0
-2748 2802 0
-93 -2748 2749 0
-2749 2803 0
-94 -2749 2750 0
-2750 2804 0
-95 -2750 2751 0
-2751 2805 0
-96 -2751 2752 0
-2752 2806 0
-97 -2752 2753 0
-2753 2807 0
-98 -2753 0
-45 2754 0
-2754 2808 0
-46 -2754 2755 0
-2755 2809 0
-47 -2755 2756 0
-2756 2810 0
-48 -2756 2757 0
-2757 2811 0
-49 -2757 2758 0
-2758 2812 0
-50 -2758 2759 0
-2759 2813 0
-51 -2759 2760 0
-2760 2814 0
-52 -2760 2761 0
-2761 2815 0
-53 -2761 2762 0
-2762 2816 0
-54 -2762 2763 0
-2763 2817 0
-55 -2763 2764 0
-2764 2818 0
-56 -2764 2765 0
-2765 2819 0
-57 -2765 2766 0
-2766 2820 0
-58 -2766 2767 0
-2767 2821 0
-59 -2767 2768 0
-2768 2822 0
-60 -2768 2769 0
-2769 2823 0
-61 -2769 2770 0
-2770 2824 0
-62 -2770 2771 0
-2771 2825 0
-63 -2771 2772 0
-2772 2826 0
-64 -2772 2773 0
-2773 2827 0
-65 -2773 2774 0
-2774 2828 0
-66 -2774 2775 0
-2775 2829 0
-67 -2775 2776 0
-2776 2830 0
-68 -2776 2777 0
-2777 2831 0
-69 -2777 2778 0
-2778 2832 0
-70 -2778 2779 0
-2779 2833 0
-71 -2779 2780 0
-2780 2834 0
-72 -2780 2781 0
-2781 2835 0
-73 -2781 2782 0
-2782 2836 0
-74 -2782 2783 0
-2783 2837 0
-75 -2783 2784 0
-2784 2838 0
-76 -2784 2785 0
-2785 2839 0
-77 -2785 2786 0
-2786 2840 0
-78 -2786 2787 0
-2787 2841 0
-79 -2787 2788 0
-2788 2842 0
-80 -2788 2789 0
-2789 2843 0
-81 -2789 2790 0
-2790 2844 0
-82 -2790 2791 0
-2791 2845 0
-83 -2791 2792 0
-2792 2846 0
-84 -2792 2793 0
-2793 2847 0
-85 -2793 2794 0
-2794 2848 0
-86 -2794 2795 0
-2795 2849 0
-87 -2795 2796 0
-2796 2850 0
-88 -2796 2797 0
-2797 2851 0
-89 -2797 2798 0
-2798 2852 0
-90 -2798 2799 0
-2799 2853 0
-91 -2799 2800 0
-2800 2854 0
-92 -2800 2801 0
-2801 2855 0
-93 -2801 2802 0
-2802 2856 0
-94 -2802 2803 0
-2803 2857 0
-95 -2803 2804 0
-2804 2858 0
-96 -2804 2805 0
-2805 2859 0
-97 -2805 2806 0
-2806 2860 0
-98 -2806 2807 0
-2807 2861 0
-99 -2807 0
-46 2808 0
-2808 2862 0
-47 -2808 2809 0
-2809 2863 0
-48 -2809 2810 0
-2810 2864 0
-49 -2810 2811 0
-2811 2865 0
-50 -2811 2812 0
-2812 2866 0
-51 -2812 2813 0
-2813 2867 0
-52 -2813 2814 0
-2814 2868 0
-53 -2814 2815 0
-2815 2869 0
-54 -2815 2816 0
-2816 2870 0
-55 -2816 2817 0
-2817 2871 0
-56 -2817 2818 0
-2818 2872 0
-57 -2818 2819 0
-2819 2873 0
-58 -2819 2820 0
-2820 2874 0
-59 -2820 2821 0
-2821 2875 0
-60 -2821 2822 0
-2822 2876 0
-61 -2822 2823 0
-2823 2877 0
-62 -2823 2824 0
-2824 2878 0
-63 -2824 2825 0
-2825 2879 0
-64 -2825 2826 0
-2826 2880 0
-65 -2826 2827 0
-2827 2881 0
-66 -2827 2828 0
-2828 2882 0
-67 -2828 2829 0
-2829 2883 0
-68 -2829 2830 0
-2830 2884 0
-69 -2830 2831 0
-2831 2885 0
-70 -2831 2832 0
-2832 2886 0
-71 -2832 2833 0
-2833 2887 0
-72 -2833 2834 0
-2834 2888 0
-73 -2834 2835 0
-2835 2889 0
-74 -2835 2836 0
-2836 2890 0
-75 -2836 2837 0
-2837 2891 0
-76 -2837 2838 0
-2838 2892 0
-77 -2838 2839 0
-2839 2893 0
-78 -2839 2840 0
-2840 2894 0
-79 -2840 2841 0
-2841 2895 0
-80 -2841 2842 0
-2842 2896 0
-81 -2842 2843 0
-2843 2897 0
-82 -2843 2844 0
-2844 2898 0
-83 -2844 2845 0
-2845 2899 0
-84 -2845 2846 0
-2846 2900 0
-85 -2846 2847 0
-2847 2901 0
-86 -2847 2848 0
-2848 2902 0
-87 -2848 2849 0
-2849 2903 0
-88 -2849 2850 0
-2850 2904 0
-89 -2850 2851 0
-2851 2905 0
-90 -2851 2852 0
-2852 2906 0
-91 -2852 2853 0
-2853 2907 0
-92 -2853 2854 0
-2854 2908 0
-93 -2854 2855 0
-2855 2909 0
-94 -2855 2856 0
-2856 2910 0
-95 -2856 2857 0
-2857 2911 0
-96 -2857 2858 0
-2858 2912 0
-97 -2858 2859 0
-2859 2913 0
-98 -2859 2860 0
-2860 2914 0
-99 -2860 2861 0
-2861 2915 0
-100 -2861 0
-47 2862 0
-2862 2916 0
-48 -2862 2863 0
-2863 2917 0
-49 -2863 2864 0
-2864 2918 0
-50 -2864 2865 0
-2865 2919 0
-51 -2865 2866 0
-2866 2920 0
-52 -2866 2867 0
-2867 2921 0
-53 -2867 2868 0
-2868 2922 0
-54 -2868 2869 0
-2869 2923 0
-55 -2869 2870 0
-2870 2924 0
-56 -2870 2871 0
-2871 2925 0
-57 -2871 2872 0
-2872 2926 0
-58 -2872 2873 0
-2873 2927 0
-59 -2873 2874 0
-2874 2928 0
-60 -2874 2875 0
-2875 2929 0
-61 -2875 2876 0
-2876 2930 0
-62 -2876 2877 0
-2877 2931 0
-63 -2877 2878 0
-2878 2932 0
-64 -2878 2879 0
-2879 2933 0
-65 -2879 2880 0
-2880 2934 0
-66 -2880 2881 0
-2881 2935 0
-67 -2881 2882 0
-2882 2936 0
-68 -2882 2883 0
-2883 2937 0
-69 -2883 2884 0
-2884 2938 0
-70 -2884 2885 0
-2885 2939 0
-71 -2885 2886 0
-2886 2940 0
-72 -2886 2887 0
-2887 2941 0
-73 -2887 2888 0
-2888 2942 0
-74 -2888 2889 0
-2889 2943 0
-75 -2889 2890 0
-2890 2944 0
-76 -2890 2891 0
-2891 2945 0
-77 -2891 2892 0
-2892 2946 0
-78 -2892 2893 0
-2893 2947 0
-79 -2893 2894 0
-2894 2948 0
-80 -2894 2895 0
-2895 2949 0
-81 -2895 2896 0
-2896 2950 0
-82 -2896 2897 0
-2897 2951 0
-83 -2897 2898 0
-2898 2952 0
-84 -2898 2899 0
-2899 2953 0
-85 -2899 2900 0
-2900 2954 0
-86 -2900 2901 0
-2901 2955 0
-87 -2901 2902 0
-2902 2956 0
-88 -2902 2903 0
-2903 2957 0
-89 -2903 2904 0
-2904 2958 0
-90 -2904 2905 0
-2905 2959 0
-91 -2905 2906 0
-2906 2960 0
-92 -2906 2907 0
-2907 2961 0
-93 -2907 2908 0
-2908 2962 0
-94 -2908 2909 0
-2909 2963 0
-95 -2909 2910 0
-2910 2964 0
-96 -2910 2911 0
-2911 2965 0
-97 -2911 2912 0
-2912 2966 0
-98 -2912 2913 0
-2913 2967 0
-99 -2913 2914 0
-2914 2968 0
-100 -2914 2915 0
-2915 2969 0
-101 -2915 0
-48 2916 0
-2916 2970 0
-49 -2916 2917 0
-2917 2971 0
-50 -2917 2918 0
-2918 2972 0
-51 -2918 2919 0
-2919 2973 0
-52 -2919 2920 0
-2920 2974 0
-53 -2920 2921 0
-2921 2975 0
-54 -2921 2922 0
-2922 2976 0
-55 -2922 2923 0
-2923 2977 0
-56 -2923 2924 0
-2924 2978 0
-57 -2924 2925 0
-2925 2979 0
-58 -2925 2926 0
-2926 2980 0
-59 -2926 2927 0
-2927 2981 0
-60 -2927 2928 0
-2928 2982 0
-61 -2928 2929 0
-2929 2983 0
-62 -2929 2930 0
-2930 2984 0
-63 -2930 2931 0
-2931 2985 0
-64 -2931 2932 0
-2932 2986 0
-65 -2932 2933 0
-2933 2987 0
-66 -2933 2934 0
-2934 2988 0
-67 -2934 2935 0
-2935 2989 0
-68 -2935 2936 0
-2936 2990 0
-69 -2936 2937 0
-2937 2991 0
-70 -2937 2938 0
-2938 2992 0
-71 -2938 2939 0
-2939 2993 0
-72 -2939 2940 0
-2940 2994 0
-73 -2940 2941 0
-2941 2995 0
-74 -2941 2942 0
-2942 2996 0
-75 -2942 2943 0
-2943 2997 0
-76 -2943 2944 0
-2944 2998 0
-77 -2944 2945 0
-2945 2999 0
-78 -2945 2946 0
-2946 3000 0
-79 -2946 2947 0
-2947 3001 0
-80 -2947 2948 0
-2948 3002 0
-81 -2948 2949 0
-2949 3003 0
-82 -2949 2950 0
-2950 3004 0
-83 -2950 2951 0
-2951 3005 0
-84 -2951 2952 0
-2952 3006 0
-85 -2952 2953 0
-2953 3007 0
-86 -2953 2954 0
-2954 3008 0
-87 -2954 2955 0
-2955 3009 0
-88 -2955 2956 0
-2956 3010 0
-89 -2956 2957 0
-2957 3011 0
-90 -2957 2958 0
-2958 3012 0
-91 -2958 2959 0
-2959 3013 0
-92 -2959 2960 0
-2960 3014 0
-93 -2960 2961 0
-2961 3015 0
-94 -2961 2962 0
-2962 3016 0
-95 -2962 2963 0
-2963 3017 0
-96 -2963 2964 0
-2964 3018 0
-97 -2964 2965 0
-2965 3019 0
-98 -2965 2966 0
-2966 3020 0
-99 -2966 2967 0
-2967 3021 0
-100 -2967 2968 0
-2968 3022 0
-101 -2968 2969 0
-2969 3023 0
-102 -2969 0
-49 2970 0
-2970 3024 0
-50 -2970 2971 0
-2971 3025 0
-51 -2971 2972 0
-2972 3026 0
-52 -2972 2973 0
-2973 3027 0
-53 -2973 2974 0
-2974 3028 0
-54 -2974 2975 0
-2975 3029 0
-55 -2975 2976 0
-2976 3030 0
-56 -2976 2977 0
-2977 3031 0
-57 -2977 2978 0
-2978 3032 0
-58 -2978 2979 0
-2979 3033 0
-59 -2979 2980 0
-2980 3034 0
-60 -2980 2981 0
-2981 3035 0
-61 -2981 2982 0
-2982 3036 0
-62 -2982 2983 0
-2983 3037 0
-63 -2983 2984 0
-2984 3038 0
-64 -2984 2985 0
-2985 3039 0
-65 -2985 2986 0
-2986 3040 0
-66 -2986 2987 0
-2987 3041 0
-67 -2987 2988 0
-2988 3042 0
-68 -2988 2989 0
-2989 3043 0
-69 -2989 2990 0
-2990 3044 0
-70 -2990 2991 0
-2991 3045 0
-71 -2991 2992 0
-2992 3046 0
-72 -2992 2993 0
-2993 3047 0
-73 -2993 2994 0
-2994 3048 0
-74 -2994 2995 0
-2995 3049 0
-75 -2995 2996 0
-2996 3050 0
-76 -2996 2997 0
-2997 3051 0
-77 -2997 2998 0
-2998 3052 0
-78 -2998 2999 0
-2999 3053 0
-79 -2999 3000 0
-3000 3054 0
-80 -3000 3001 0
-3001 3055 0
-81 -3001 3002 0
-3002 3056 0
-82 -3002 3003 0
-3003 3057 0
-83 -3003 3004 0
-3004 3058 0
-84 -3004 3005 0
-3005 3059 0
-85 -3005 3006 0
-3006 3060 0
-86 -3006 3007 0
-3007 3061 0
-87 -3007 3008 0
-3008 3062 0
-88 -3008 3009 0
-3009 3063 0
-89 -3009 3010 0
-3010 3064 0
-90 -3010 3011 0
-3011 3065 0
-91 -3011 3012 0
-3012 3066 0
-92 -3012 3013 0
-3013 3067 0
-93 -3013 3014 0
-3014 3068 0
-94 -3014 3015 0
-3015 3069 0
-95 -3015 3016 0
-3016 3070 0
-96 -3016 3017 0
-3017 3071 0
-97 -3017 3018 0
-3018 3072 0
-98 -3018 3019 0
-3019 3073 0
-99 -3019 3020 0
-3020 3074 0
-100 -3020 3021 0
-3021 3075 0
-101 -3021 3022 0
-3022 3076 0
-102 -3022 3023 0
-3023 3077 0
-103 -3023 0
-50 3024 0
-3024 3078 0
-51 -3024 3025 0
-3025 3079 0
-52 -3025 3026 0
-3026 3080 0
-53 -3026 3027 0
-3027 3081 0
-54 -3027 3028 0
-3028 3082 0
-55 -3028 3029 0
-3029 3083 0
-56 -3029 3030 0
-3030 3084 0
-57 -3030 3031 0
-3031 3085 0
-58 -3031 3032 0
-3032 3086 0
-59 -3032 3033 0
-3033 3087 0
-60 -3033 3034 0
-3034 3088 0
-61 -3034 3035 0
-3035 3089 0
-62 -3035 3036 0
-3036 3090 0
-63 -3036 3037 0
-3037 3091 0
-64 -3037 3038 0
-3038 3092 0
-65 -3038 3039 0
-3039 3093 0
-66 -3039 3040 0
-3040 3094 0
-67 -3040 3041 0
-3041 3095 0
-68 -3041 3042 0
-3042 3096 0
-69 -3042 3043 0
-3043 3097 0
-70 -3043 3044 0
-3044 3098 0
-71 -3044 3045 0
-3045 3099 0
-72 -3045 3046 0
-3046 3100 0
-73 -3046 3047 0
-3047 3101 0
-74 -3047 3048 0
-3048 3102 0
-75 -3048 3049 0
-3049 3103 0
-76 -3049 3050 0
-3050 3104 0
-77 -3050 3051 0
-3051 3105 0
-78 -3051 3052 0
-3052 3106 0
-79 -3052 3053 0
-3053 3107 0
-80 -3053 3054 0
-3054 3108 0
-81 -3054 3055 0
-3055 3109 0
-82 -3055 3056 0
-3056 3110 0
-83 -3056 3057 0
-3057 3111 0
-84 -3057 3058 0
-3058 3112 0
-85 -3058 3059 0
-3059 3113 0
-86 -3059 3060 0
-3060 3114 0
-87 -3060 3061 0
-3061 3115 0
-88 -3061 3062 0
-3062 3116 0
-89 -3062 3063 0
-3063 3117 0
-90 -3063 3064 0
-3064 3118 0
-91 -3064 3065 0
-3065 3119 0
-92 -3065 3066 0
-3066 3120 0
-93 -3066 3067 0
-3067 3121 0
-94 -3067 3068 0
-3068 3122 0
-95 -3068 3069 0
-3069 3123 0
-96 -3069 3070 0
-3070 3124 0
-97 -3070 3071 0
-3071 3125 0
-98 -3071 3072 0
-3072 3126 0
-99 -3072 3073 0
-3073 3127 0
-100 -3073 3074 0
-3074 3128 0
-101 -3074 3075 0
-3075 3129 0
-102 -3075 3076 0
-3076 3130 0
-103 -3076 3077 0
-3077 3131 0
-104 -3077 0
-51 3078 0
-3078 3132 0
-52 -3078 3079 0
-3079 3133 0
-53 -3079 3080 0
-3080 3134 0
-54 -3080 3081 0
-3081 3135 0
-55 -3081 3082 0
-3082 3136 0
-56 -3082 3083 0
-3083 3137 0
-57 -3083 3084 0
-3084 3138 0
-58 -3084 3085 0
-3085 3139 0
-59 -3085 3086 0
-3086 3140 0
-60 -3086 3087 0
-3087 3141 0
-61 -3087 3088 0
-3088 3142 0
-62 -3088 3089 0
-3089 3143 0
-63 -3089 3090 0
-3090 3144 0
-64 -3090 3091 0
-3091 3145 0
-65 -3091 3092 0
-3092 3146 0
-66 -3092 3093 0
-3093 3147 0
-67 -3093 3094 0
-3094 3148 0
-68 -3094 3095 0
-3095 3149 0
-69 -3095 3096 0
-3096 3150 0
-70 -3096 3097 0
-3097 3151 0
-71 -3097 3098 0
-3098 3152 0
-72 -3098 3099 0
-3099 3153 0
-73 -3099 3100 0
-3100 3154 0
-74 -3100 3101 0
-3101 3155 0
-75 -3101 3102 0
-3102 3156 0
-76 -3102 3103 0
-3103 3157 0
-77 -3103 3104 0
-3104 3158 0
-78 -3104 3105 0
-3105 3159 0
-79 -3105 3106 0
-3106 3160 0
-80 -3106 3107 0
-3107 3161 0
-81 -3107 3108 0
-3108 3162 0
-82 -3108 3109 0
-3109 3163 0
-83 -3109 3110 0
-3110 3164 0
-84 -3110 3111 0
-3111 3165 0
-85 -3111 3112 0
-3112 3166 0
-86 -3112 3113 0
-3113 3167 0
-87 -3113 3114 0
-3114 3168 0
-88 -3114 3115 0
-3115 3169 0
-89 -3115 3116 0
-3116 3170 0
-90 -3116 3117 0
-3117 3171 0
-91 -3117 3118 0
-3118 3172 0
-92 -3118 3119 0
-3119 3173 0
-93 -3119 3120 0
-3120 3174 0
-94 -3120 3121 0
-3121 3175 0
-95 -3121 3122 0
-3122 3176 0
-96 -3122 3123 0
-3123 3177 0
-97 -3123 3124 0
-3124 3178 0
-98 -3124 3125 0
-3125 3179 0
-99 -3125 3126 0
-3126 3180 0
-100 -3126 3127 0
-3127 3181 0
-101 -3127 3128 0
-3128 3182 0
-102 -3128 3129 0
-3129 3183 0
-103 -3129 3130 0
-3130 3184 0
-104 -3130 3131 0
-3131 3185 0
-105 -3131 0
-52 3132 0
-3132 3186 0
-53 -3132 3133 0
-3133 3187 0
-54 -3133 3134 0
-3134 3188 0
-55 -3134 3135 0
-3135 3189 0
-56 -3135 3136 0
-3136 3190 0
-57 -3136 3137 0
-3137 3191 0
-58 -3137 3138 0
-3138 3192 0
-59 -3138 3139 0
-3139 3193 0
-60 -3139 3140 0
-3140 3194 0
-61 -3140 3141 0
-3141 3195 0
-62 -3141 3142 0
-3142 3196 0
-63 -3142 3143 0
-3143 3197 0
-64 -3143 3144 0
-3144 3198 0
-65 -3144 3145 0
-3145 3199 0
-66 -3145 3146 0
-3146 3200 0
-67 -3146 3147 0
-3147 3201 0
-68 -3147 3148 0
-3148 3202 0
-69 -3148 3149 0
-3149 3203 0
-70 -3149 3150 0
-3150 3204 0
-71 -3150 3151 0
-3151 3205 0
-72 -3151 3152 0
-3152 3206 0
-73 -3152 3153 0
-3153 3207 0
-74 -3153 3154 0
-3154 3208 0
-75 -3154 3155 0
-3155 3209 0
-76 -3155 3156 0
-3156 3210 0
-77 -3156 3157 0
-3157 3211 0
-78 -3157 3158 0
-3158 3212 0
-79 -3158 3159 0
-3159 3213 0
-80 -3159 3160 0
-3160 3214 0
-81 -3160 3161 0
-3161 3215 0
-82 -3161 3162 0
-3162 3216 0
-83 -3162 3163 0
-3163 3217 0
-84 -3163 3164 0
-3164 3218 0
-85 -3164 3165 0
-3165 3219 0
-86 -3165 3166 0
-3166 3220 0
-87 -3166 3167 0
-3167 3221 0
-88 -3167 3168 0
-3168 3222 0
-89 -3168 3169 0
-3169 3223 0
-90 -3169 3170 0
-3170 3224 0
-91 -3170 3171 0
-3171 3225 0
-92 -3171 3172 0
-3172 3226 0
-93 -3172 3173 0
-3173 3227 0
-94 -3173 3174 0
-3174 3228 0
-95 -3174 3175 0
-3175 3229 0
-96 -3175 3176 0
-3176 3230 0
-97 -3176 3177 0
-3177 3231 0
-98 -3177 3178 0
-3178 3232 0
-99 -3178 3179 0
-3179 3233 0
-100 -3179 3180 0
-3180 3234 0
-101 -3180 3181 0
-3181 3235 0
-102 -3181 3182 0
-3182 3236 0
-103 -3182 3183 0
-3183 3237 0
-104 -3183 3184 0
-3184 3238 0
-105 -3184 3185 0
-3185 3239 0
-106 -3185 0
-53 3186 0
-3186 3240 0
-54 -3186 3187 0
-3187 3241 0
-55 -3187 3188 0
-3188 3242 0
-56 -3188 3189 0
-3189 3243 0
-57 -3189 3190 0
-3190 3244 0
-58 -3190 3191 0
-3191 3245 0
-59 -3191 3192 0
-3192 3246 0
-60 -3192 3193 0
-3193 3247 0
-61 -3193 3194 0
-3194 3248 0
-62 -3194 3195 0
-3195 3249 0
-63 -3195 3196 0
-3196 3250 0
-64 -3196 3197 0
-3197 3251 0
-65 -3197 3198 0
-3198 3252 0
-66 -3198 3199 0
-3199 3253 0
-67 -3199 3200 0
-3200 3254 0
-68 -3200 3201 0
-3201 3255 0
-69 -3201 3202 0
-3202 3256 0
-70 -3202 3203 0
-3203 3257 0
-71 -3203 3204 0
-3204 3258 0
-72 -3204 3205 0
-3205 3259 0
-73 -3205 3206 0
-3206 3260 0
-74 -3206 3207 0
-3207 3261 0
-75 -3207 3208 0
-3208 3262 0
-76 -3208 3209 0
-3209 3263 0
-77 -3209 3210 0
-3210 3264 0
-78 -3210 3211 0
-3211 3265 0
-79 -3211 3212 0
-3212 3266 0
-80 -3212 3213 0
-3213 3267 0
-81 -3213 3214 0
-3214 3268 0
-82 -3214 3215 0
-3215 3269 0
-83 -3215 3216 0
-3216 3270 0
-84 -3216 3217 0
-3217 3271 0
-85 -3217 3218 0
-3218 3272 0
-86 -3218 3219 0
-3219 3273 0
-87 -3219 3220 0
-3220 3274 0
-88 -3220 3221 0
-3221 3275 0
-89 -3221 3222 0
-3222 3276 0
-90 -3222 3223 0
-3223 3277 0
-91 -3223 3224 0
-3224 3278 0
-92 -3224 3225 0
-3225 3279 0
-93 -3225 3226 0
-3226 3280 0
-94 -3226 3227 0
-3227 3281 0
-95 -3227 3228 0
-3228 3282 0
-96 -3228 3229 0
-3229 3283 0
-97 -3229 3230 0
-3230 3284 0
-98 -3230 3231 0
-3231 3285 0
-99 -3231 3232 0
-3232 3286 0
-100 -3232 3233 0
-3233 3287 0
-101 -3233 3234 0
-3234 3288 0
-102 -3234 3235 0
-3235 3289 0
-103 -3235 3236 0
-3236 3290 0
-104 -3236 3237 0
-3237 3291 0
-105 -3237 3238 0
-3238 3292 0
-106 -3238 3239 0
-3239 3293 0
-107 -3239 0
-54 3240 0
-3240 3294 0
-55 -3240 3241 0
-3241 3295 0
-56 -3241 3242 0
-3242 3296 0
-57 -3242 3243 0
-3243 3297 0
-58 -3243 3244 0
-3244 3298 0
-59 -3244 3245 0
-3245 3299 0
-60 -3245 3246 0
-3246 3300 0
-61 -3246 3247 0
-3247 3301 0
-62 -3247 3248 0
-3248 3302 0
-63 -3248 3249 0
-3249 3303 0
-64 -3249 3250 0
-3250 3304 0
-65 -3250 3251 0
-3251 3305 0
-66 -3251 3252 0
-3252 3306 0
-67 -3252 3253 0
-3253 3307 0
-68 -3253 3254 0
-3254 3308 0
-69 -3254 3255 0
-3255 3309 0
-70 -3255 3256 0
-3256 3310 0
-71 -3256 3257 0
-3257 3311 0
-72 -3257 3258 0
-3258 3312 0
-73 -3258 3259 0
-3259 3313 0
-74 -3259 3260 0
-3260 3314 0
-75 -3260 3261 0
-3261 3315 0
-76 -3261 3262 0
-3262 3316 0
-77 -3262 3263 0
-3263 3317 0
-78 -3263 3264 0
-3264 3318 0
-79 -3264 3265 0
-3265 3319 0
-80 -3265 3266 0
-3266 3320 0
-81 -3266 3267 0
-3267 3321 0
-82 -3267 3268 0
-3268 3322 0
-83 -3268 3269 0
-3269 3323 0
-84 -3269 3270 0
-3270 3324 0
-85 -3270 3271 0
-3271 3325 0
-86 -3271 3272 0
-3272 3326 0
-87 -3272 3273 0
-3273 3327 0
-88 -3273 3274 0
-3274 3328 0
-89 -3274 3275 0
-3275 3329 0
-90 -3275 3276 0
-3276 3330 0
-91 -3276 3277 0
-3277 3331 0
-92 -3277 3278 0
-3278 3332 0
-93 -3278 3279 0
-3279 3333 0
-94 -3279 3280 0
-3280 3334 0
-95 -3280 3281 0
-3281 3335 0
-96 -3281 3282 0
-3282 3336 0
-97 -3282 3283 0
-3283 3337 0
-98 -3283 3284 0
-3284 3338 0
-99 -3284 3285 0
-3285 3339 0
-100 -3285 3286 0
-3286 3340 0
-101 -3286 3287 0
-3287 3341 0
-102 -3287 3288 0
-3288 3342 0
-103 -3288 3289 0
-3289 3343 0
-104 -3289 3290 0
-3290 3344 0
-105 -3290 3291 0
-3291 3345 0
-106 -3291 3292 0
-3292 3346 0
-107 -3292 3293 0
-3293 3347 0
-108 -3293 0
-55 3294 0
-3294 3348 0
-56 -3294 3295 0
-3295 3349 0
-57 -3295 3296 0
-3296 3350 0
-58 -3296 3297 0
-3297 3351 0
-59 -3297 3298 0
-3298 3352 0
-60 -3298 3299 0
-3299 3353 0
-61 -3299 3300 0
-3300 3354 0
-62 -3300 3301 0
-3301 3355 0
-63 -3301 3302 0
-3302 3356 0
-64 -3302 3303 0
-3303 3357 0
-65 -3303 3304 0
-3304 3358 0
-66 -3304 3305 0
-3305 3359 0
-67 -3305 3306 0
-3306 3360 0
-68 -3306 3307 0
-3307 3361 0
-69 -3307 3308 0
-3308 3362 0
-70 -3308 3309 0
-3309 3363 0
-71 -3309 3310 0
-3310 3364 0
-72 -3310 3311 0
-3311 3365 0
-73 -3311 3312 0
-3312 3366 0
-74 -3312 3313 0
-3313 3367 0
-75 -3313 3314 0
-3314 3368 0
-76 -3314 3315 0
-3315 3369 0
-77 -3315 3316 0
-3316 3370 0
-78 -3316 3317 0
-3317 3371 0
-79 -3317 3318 0
-3318 3372 0
-80 -3318 3319 0
-3319 3373 0
-81 -3319 3320 0
-3320 3374 0
-82 -3320 3321 0
-3321 3375 0
-83 -3321 3322 0
-3322 3376 0
-84 -3322 3323 0
-3323 3377 0
-85 -3323 3324 0
-3324 3378 0
-86 -3324 3325 0
-3325 3379 0
-87 -3325 3326 0
-3326 3380 0
-88 -3326 3327 0
-3327 3381 0
-89 -3327 3328 0
-3328 3382 0
-90 -3328 3329 0
-3329 3383 0
-91 -3329 3330 0
-3330 3384 0
-92 -3330 3331 0
-3331 3385 0
-93 -3331 3332 0
-3332 3386 0
-94 -3332 3333 0
-3333 3387 0
-95 -3333 3334 0
-3334 3388 0
-96 -3334 3335 0
-3335 3389 0
-97 -3335 3336 0
-3336 3390 0
-98 -3336 3337 0
-3337 3391 0
-99 -3337 3338 0
-3338 3392 0
-100 -3338 3339 0
-3339 3393 0
-101 -3339 3340 0
-3340 3394 0
-102 -3340 3341 0
-3341 3395 0
-103 -3341 3342 0
-3342 3396 0
-104 -3342 3343 0
-3343 3397 0
-105 -3343 3344 0
-3344 3398 0
-106 -3344 3345 0
-3345 3399 0
-107 -3345 3346 0
-3346 3400 0
-108 -3346 3347 0
-3347 3401 0
-109 -3347 0
-56 3348 0
-3348 3402 0
-57 -3348 3349 0
-3349 3403 0
-58 -3349 3350 0
-3350 3404 0
-59 -3350 3351 0
-3351 3405 0
-60 -3351 3352 0
-3352 3406 0
-61 -3352 3353 0
-3353 3407 0
-62 -3353 3354 0
-3354 3408 0
-63 -3354 3355 0
-3355 3409 0
-64 -3355 3356 0
-3356 3410 0
-65 -3356 3357 0
-3357 3411 0
-66 -3357 3358 0
-3358 3412 0
-67 -3358 3359 0
-3359 3413 0
-68 -3359 3360 0
-3360 3414 0
-69 -3360 3361 0
-3361 3415 0
-70 -3361 3362 0
-3362 3416 0
-71 -3362 3363 0
-3363 3417 0
-72 -3363 3364 0
-3364 3418 0
-73 -3364 3365 0
-3365 3419 0
-74 -3365 3366 0
-3366 3420 0
-75 -3366 3367 0
-3367 3421 0
-76 -3367 3368 0
-3368 3422 0
-77 -3368 3369 0
-3369 3423 0
-78 -3369 3370 0
-3370 3424 0
-79 -3370 3371 0
-3371 3425 0
-80 -3371 3372 0
-3372 3426 0
-81 -3372 3373 0
-3373 3427 0
-82 -3373 3374 0
-3374 3428 0
-83 -3374 3375 0
-3375 3429 0
-84 -3375 3376 0
-3376 3430 0
-85 -3376 3377 0
-3377 3431 0
-86 -3377 3378 0
-3378 3432 0
-87 -3378 3379 0
-3379 3433 0
-88 -3379 3380 0
-3380 3434 0
-89 -3380 3381 0
-3381 3435 0
-90 -3381 3382 0
-3382 3436 0
-91 -3382 3383 0
-3383 3437 0
-92 -3383 3384 0
-3384 3438 0
-93 -3384 3385 0
-3385 3439 0
-94 -3385 3386 0
-3386 3440 0
-95 -3386 3387 0
-3387 3441 0
-96 -3387 3388 0
-3388 3442 0
-97 -3388 3389 0
-3389 3443 0
-98 -3389 3390 0
-3390 3444 0
-99 -3390 3391 0
-3391 3445 0
-100 -3391 3392 0
-3392 3446 0
-101 -3392 3393 0
-3393 3447 0
-102 -3393 3394 0
-3394 3448 0
-103 -3394 3395 0
-3395 3449 0
-104 -3395 3396 0
-3396 3450 0
-105 -3396 3397 0
-3397 3451 0
-106 -3397 3398 0
-3398 3452 0
-107 -3398 3399 0
-3399 3453 0
-108 -3399 3400 0
-3400 3454 0
-109 -3400 3401 0
-3401 3455 0
-110 -3401 0
-57 3402 0
-3402 3456 0
-58 -3402 3403 0
-3403 3457 0
-59 -3403 3404 0
-3404 3458 0
-60 -3404 3405 0
-3405 3459 0
-61 -3405 3406 0
-3406 3460 0
-62 -3406 3407 0
-3407 3461 0
-63 -3407 3408 0
-3408 3462 0
-64 -3408 3409 0
-3409 3463 0
-65 -3409 3410 0
-3410 3464 0
-66 -3410 3411 0
-3411 3465 0
-67 -3411 3412 0
-3412 3466 0
-68 -3412 3413 0
-3413 3467 0
-69 -3413 3414 0
-3414 3468 0
-70 -3414 3415 0
-3415 3469 0
-71 -3415 3416 0
-3416 3470 0
-72 -3416 3417 0
-3417 3471 0
-73 -3417 3418 0
-3418 3472 0
-74 -3418 3419 0
-3419 3473 0
-75 -3419 3420 0
-3420 3474 0
-76 -3420 3421 0
-3421 3475 0
-77 -3421 3422 0
-3422 3476 0
-78 -3422 3423 0
-3423 3477 0
-79 -3423 3424 0
-3424 3478 0
-80 -3424 3425 0
-3425 3479 0
-81 -3425 3426 0
-3426 3480 0
-82 -3426 3427 0
-3427 3481 0
-83 -3427 3428 0
-3428 3482 0
-84 -3428 3429 0
-3429 3483 0
-85 -3429 3430 0
-3430 3484 0
-86 -3430 3431 0
-3431 3485 0
-87 -3431 3432 0
-3432 3486 0
-88 -3432 3433 0
-3433 3487 0
-89 -3433 3434 0
-3434 3488 0
-90 -3434 3435 0
-3435 3489 0
-91 -3435 3436 0
-3436 3490 0
-92 -3436 3437 0
-3437 3491 0
-93 -3437 3438 0
-3438 3492 0
-94 -3438 3439 0
-3439 3493 0
-95 -3439 3440 0
-3440 3494 0
-96 -3440 3441 0
-3441 3495 0
-97 -3441 3442 0
-3442 3496 0
-98 -3442 3443 0
-3443 3497 0
-99 -3443 3444 0
-3444 3498 0
-100 -3444 3445 0
-3445 3499 0
-101 -3445 3446 0
-3446 3500 0
-102 -3446 3447 0
-3447 3501 0
-103 -3447 3448 0
-3448 3502 0
-104 -3448 3449 0
-3449 3503 0
-105 -3449 3450 0
-3450 3504 0
-106 -3450 3451 0
-3451 3505 0
-107 -3451 3452 0
-3452 3506 0
-108 -3452 3453 0
-3453 3507 0
-109 -3453 3454 0
-3454 3508 0
-110 -3454 3455 0
-3455 3509 0
-111 -3455 0
-58 3456 0
-3456 3510 0
-59 -3456 3457 0
-3457 3511 0
-60 -3457 3458 0
-3458 3512 0
-61 -3458 3459 0
-3459 3513 0
-62 -3459 3460 0
-3460 3514 0
-63 -3460 3461 0
-3461 3515 0
-64 -3461 3462 0
-3462 3516 0
-65 -3462 3463 0
-3463 3517 0
-66 -3463 3464 0
-3464 3518 0
-67 -3464 3465 0
-3465 3519 0
-68 -3465 3466 0
-3466 3520 0
-69 -3466 3467 0
-3467 3521 0
-70 -3467 3468 0
-3468 3522 0
-71 -3468 3469 0
-3469 3523 0
-72 -3469 3470 0
-3470 3524 0
-73 -3470 3471 0
-3471 3525 0
-74 -3471 3472 0
-3472 3526 0
-75 -3472 3473 0
-3473 3527 0
-76 -3473 3474 0
-3474 3528 0
-77 -3474 3475 0
-3475 3529 0
-78 -3475 3476 0
-3476 3530 0
-79 -3476 3477 0
-3477 3531 0
-80 -3477 3478 0
-3478 3532 0
-81 -3478 3479 0
-3479 3533 0
-82 -3479 3480 0
-3480 3534 0
-83 -3480 3481 0
-3481 3535 0
-84 -3481 3482 0
-3482 3536 0
-85 -3482 3483 0
-3483 3537 0
-86 -3483 3484 0
-3484 3538 0
-87 -3484 3485 0
-3485 3539 0
-88 -3485 3486 0
-3486 3540 0
-89 -3486 3487 0
-3487 3541 0
-90 -3487 3488 0
-3488 3542 0
-91 -3488 3489 0
-3489 3543 0
-92 -3489 3490 0
-3490 3544 0
-93 -3490 3491 0
-3491 3545 0
-94 -3491 3492 0
-3492 3546 0
-95 -3492 3493 0
-3493 3547 0
-96 -3493 3494 0
-3494 3548 0
-97 -3494 3495 0
-3495 3549 0
-98 -3495 3496 0
-3496 3550 0
-99 -3496 3497 0
-3497 3551 0
-100 -3497 3498 0
-3498 3552 0
-101 -3498 3499 0
-3499 3553 0
-102 -3499 3500 0
-3500 3554 0
-103 -3500 3501 0
-3501 3555 0
-104 -3501 3502 0
-3502 3556 0
-105 -3502 3503 0
-3503 3557 0
-106 -3503 3504 0
-3504 3558 0
-107 -3504 3505 0
-3505 3559 0
-108 -3505 3506 0
-3506 3560 0
-109 -3506 3507 0
-3507 3561 0
-110 -3507 3508 0
-3508 3562 0
-111 -3508 3509 0
-3509 3563 0
-112 -3509 0
-59 3510 0
-3510 3564 0
-60 -3510 3511 0
-3511 3565 0
-61 -3511 3512 0
-3512 3566 0
-62 -3512 3513 0
-3513 3567 0
-63 -3513 3514 0
-3514 3568 0
-64 -3514 3515 0
-3515 3569 0
-65 -3515 3516 0
-3516 3570 0
-66 -3516 3517 0
-3517 3571 0
-67 -3517 3518 0
-3518 3572 0
-68 -3518 3519 0
-3519 3573 0
-69 -3519 3520 0
-3520 3574 0
-70 -3520 3521 0
-3521 3575 0
-71 -3521 3522 0
-3522 3576 0
-72 -3522 3523 0
-3523 3577 0
-73 -3523 3524 0
-3524 3578 0
-74 -3524 3525 0
-3525 3579 0
-75 -3525 3526 0
-3526 3580 0
-76 -3526 3527 0
-3527 3581 0
-77 -3527 3528 0
-3528 3582 0
-78 -3528 3529 0
-3529 3583 0
-79 -3529 3530 0
-3530 3584 0
-80 -3530 3531 0
-3531 3585 0
-81 -3531 3532 0
-3532 3586 0
-82 -3532 3533 0
-3533 3587 0
-83 -3533 3534 0
-3534 3588 0
-84 -3534 3535 0
-3535 3589 0
-85 -3535 3536 0
-3536 3590 0
-86 -3536 3537 0
-3537 3591 0
-87 -3537 3538 0
-3538 3592 0
-88 -3538 3539 0
-3539 3593 0
-89 -3539 3540 0
-3540 3594 0
-90 -3540 3541 0
-3541 3595 0
-91 -3541 3542 0
-3542 3596 0
-92 -3542 3543 0
-3543 3597 0
-93 -3543 3544 0
-3544 3598 0
-94 -3544 3545 0
-3545 3599 0
-95 -3545 3546 0
-3546 3600 0
-96 -3546 3547 0
-3547 3601 0
-97 -3547 3548 0
-3548 3602 0
-98 -3548 3549 0
-3549 3603 0
-99 -3549 3550 0
-3550 3604 0
-100 -3550 3551 0
-3551 3605 0
-101 -3551 3552 0
-3552 3606 0
-102 -3552 3553 0
-3553 3607 0
-103 -3553 3554 0
-3554 3608 0
-104 -3554 3555 0
-3555 3609 0
-105 -3555 3556 0
-3556 3610 0
-106 -3556 3557 0
-3557 3611 0
-107 -3557 3558 0
-3558 3612 0
-108 -3558 3559 0
-3559 3613 0
-109 -3559 3560 0
-3560 3614 0
-110 -3560 3561 0
-3561 3615 0
-111 -3561 3562 0
-3562 3616 0
-112 -3562 3563 0
-3563 3617 0
-113 -3563 0
-60 3564 0
-3564 3618 0
-61 -3564 3565 0
-3565 3619 0
-62 -3565 3566 0
-3566 3620 0
-63 -3566 3567 0
-3567 3621 0
-64 -3567 3568 0
-3568 3622 0
-65 -3568 3569 0
-3569 3623 0
-66 -3569 3570 0
-3570 3624 0
-67 -3570 3571 0
-3571 3625 0
-68 -3571 3572 0
-3572 3626 0
-69 -3572 3573 0
-3573 3627 0
-70 -3573 3574 0
-3574 3628 0
-71 -3574 3575 0
-3575 3629 0
-72 -3575 3576 0
-3576 3630 0
-73 -3576 3577 0
-3577 3631 0
-74 -3577 3578 0
-3578 3632 0
-75 -3578 3579 0
-3579 3633 0
-76 -3579 3580 0
-3580 3634 0
-77 -3580 3581 0
-3581 3635 0
-78 -3581 3582 0
-3582 3636 0
-79 -3582 3583 0
-3583 3637 0
-80 -3583 3584 0
-3584 3638 0
-81 -3584 3585 0
-3585 3639 0
-82 -3585 3586 0
-3586 3640 0
-83 -3586 3587 0
-3587 3641 0
-84 -3587 3588 0
-3588 3642 0
-85 -3588 3589 0
-3589 3643 0
-86 -3589 3590 0
-3590 3644 0
-87 -3590 3591 0
-3591 3645 0
-88 -3591 3592 0
-3592 3646 0
-89 -3592 3593 0
-3593 3647 0
-90 -3593 3594 0
-3594 3648 0
-91 -3594 3595 0
-3595 3649 0
-92 -3595 3596 0
-3596 3650 0
-93 -3596 3597 0
-3597 3651 0
-94 -3597 3598 0
-3598 3652 0
-95 -3598 3599 0
-3599 3653 0
-96 -3599 3600 0
-3600 3654 0
-97 -3600 3601 0
-3601 3655 0
-98 -3601 3602 0
-3602 3656 0
-99 -3602 3603 0
-3603 3657 0
-100 -3603 3604 0
-3604 3658 0
-101 -3604 3605 0
-3605 3659 0
-102 -3605 3606 0
-3606 3660 0
-103 -3606 3607 0
-3607 3661 0
-104 -3607 3608 0
-3608 3662 0
-105 -3608 3609 0
-3609 3663 0
-106 -3609 3610 0
-3610 3664 0
-107 -3610 3611 0
-3611 3665 0
-108 -3611 3612 0
-3612 3666 0
-109 -3612 3613 0
-3613 3667 0
-110 -3613 3614 0
-3614 3668 0
-111 -3614 3615 0
-3615 3669 0
-112 -3615 3616 0
-3616 3670 0
-113 -3616 3617 0
-3617 3671 0
-114 -3617 0
-61 3618 0
-3618 3672 0
-62 -3618 3619 0
-3619 3673 0
-63 -3619 3620 0
-3620 3674 0
-64 -3620 3621 0
-3621 3675 0
-65 -3621 3622 0
-3622 3676 0
-66 -3622 3623 0
-3623 3677 0
-67 -3623 3624 0
-3624 3678 0
-68 -3624 3625 0
-3625 3679 0
-69 -3625 3626 0
-3626 3680 0
-70 -3626 3627 0
-3627 3681 0
-71 -3627 3628 0
-3628 3682 0
-72 -3628 3629 0
-3629 3683 0
-73 -3629 3630 0
-3630 3684 0
-74 -3630 3631 0
-3631 3685 0
-75 -3631 3632 0
-3632 3686 0
-76 -3632 3633 0
-3633 3687 0
-77 -3633 3634 0
-3634 3688 0
-78 -3634 3635 0
-3635 3689 0
-79 -3635 3636 0
-3636 3690 0
-80 -3636 3637 0
-3637 3691 0
-81 -3637 3638 0
-3638 3692 0
-82 -3638 3639 0
-3639 3693 0
-83 -3639 3640 0
-3640 3694 0
-84 -3640 3641 0
-3641 3695 0
-85 -3641 3642 0
-3642 3696 0
-86 -3642 3643 0
-3643 3697 0
-87 -3643 3644 0
-3644 3698 0
-88 -3644 3645 0
-3645 3699 0
-89 -3645 3646 0
-3646 3700 0
-90 -3646 3647 0
-3647 3701 0
-91 -3647 3648 0
-3648 3702 0
-92 -3648 3649 0
-3649 3703 0
-93 -3649 3650 0
-3650 3704 0
-94 -3650 3651 0
-3651 3705 0
-95 -3651 3652 0
-3652 3706 0
-96 -3652 3653 0
-3653 3707 0
-97 -3653 3654 0
-3654 3708 0
-98 -3654 3655 0
-3655 3709 0
-99 -3655 3656 0
-3656 3710 0
-100 -3656 3657 0
-3657 3711 0
-101 -3657 3658 0
-3658 3712 0
-102 -3658 3659 0
-3659 3713 0
-103 -3659 3660 0
-3660 3714 0
-104 -3660 3661 0
-3661 3715 0
-105 -3661 3662 0
-3662 3716 0
-106 -3662 3663 0
-3663 3717 0
-107 -3663 3664 0
-3664 3718 0
-108 -3664 3665 0
-3665 3719 0
-109 -3665 3666 0
-3666 3720 0
-110 -3666 3667 0
-3667 3721 0
-111 -3667 3668 0
-3668 3722 0
-112 -3668 3669 0
-3669 3723 0
-113 -3669 3670 0
-3670 3724 0
-114 -3670 3671 0
-3671 3725 0
-115 -3671 0
-62 3672 0
-3672 3726 0
-63 -3672 3673 0
-3673 3727 0
-64 -3673 3674 0
-3674 3728 0
-65 -3674 3675 0
-3675 3729 0
-66 -3675 3676 0
-3676 3730 0
-67 -3676 3677 0
-3677 3731 0
-68 -3677 3678 0
-3678 3732 0
-69 -3678 3679 0
-3679 3733 0
-70 -3679 3680 0
-3680 3734 0
-71 -3680 3681 0
-3681 3735 0
-72 -3681 3682 0
-3682 3736 0
-73 -3682 3683 0
-3683 3737 0
-74 -3683 3684 0
-3684 3738 0
-75 -3684 3685 0
-3685 3739 0
-76 -3685 3686 0
-3686 3740 0
-77 -3686 3687 0
-3687 3741 0
-78 -3687 3688 0
-3688 3742 0
-79 -3688 3689 0
-3689 3743 0
-80 -3689 3690 0
-3690 3744 0
-81 -3690 3691 0
-3691 3745 0
-82 -3691 3692 0
-3692 3746 0
-83 -3692 3693 0
-3693 3747 0
-84 -3693 3694 0
-3694 3748 0
-85 -3694 3695 0
-3695 3749 0
-86 -3695 3696 0
-3696 3750 0
-87 -3696 3697 0
-3697 3751 0
-88 -3697 3698 0
-3698 3752 0
-89 -3698 3699 0
-3699 3753 0
-90 -3699 3700 0
-3700 3754 0
-91 -3700 3701 0
-3701 3755 0
-92 -3701 3702 0
-3702 3756 0
-93 -3702 3703 0
-3703 3757 0
-94 -3703 3704 0
-3704 3758 0
-95 -3704 3705 0
-3705 3759 0
-96 -3705 3706 0
-3706 3760 0
-97 -3706 3707 0
-3707 3761 0
-98 -3707 3708 0
-3708 3762 0
-99 -3708 3709 0
-3709 3763 0
-100 -3709 3710 0
-3710 3764 0
-101 -3710 3711 0
-3711 3765 0
-102 -3711 3712 0
-3712 3766 0
-103 -3712 3713 0
-3713 3767 0
-104 -3713 3714 0
-3714 3768 0
-105 -3714 3715 0
-3715 3769 0
-106 -3715 3716 0
-3716 3770 0
-107 -3716 3717 0
-3717 3771 0
-108 -3717 3718 0
-3718 3772 0
-109 -3718 3719 0
-3719 3773 0
-110 -3719 3720 0
-3720 3774 0
-111 -3720 3721 0
-3721 3775 0
-112 -3721 3722 0
-3722 3776 0
-113 -3722 3723 0
-3723 3777 0
-114 -3723 3724 0
-3724 3778 0
-115 -3724 3725 0
-3725 3779 0
-116 -3725 0
-63 3726 0
-3726 3780 0
-64 -3726 3727 0
-3727 3781 0
-65 -3727 3728 0
-3728 3782 0
-66 -3728 3729 0
-3729 3783 0
-67 -3729 3730 0
-3730 3784 0
-68 -3730 3731 0
-3731 3785 0
-69 -3731 3732 0
-3732 3786 0
-70 -3732 3733 0
-3733 3787 0
-71 -3733 3734 0
-3734 3788 0
-72 -3734 3735 0
-3735 3789 0
-73 -3735 3736 0
-3736 3790 0
-74 -3736 3737 0
-3737 3791 0
-75 -3737 3738 0
-3738 3792 0
-76 -3738 3739 0
-3739 3793 0
-77 -3739 3740 0
-3740 3794 0
-78 -3740 3741 0
-3741 3795 0
-79 -3741 3742 0
-3742 3796 0
-80 -3742 3743 0
-3743 3797 0
-81 -3743 3744 0
-3744 3798 0
-82 -3744 3745 0
-3745 3799 0
-83 -3745 3746 0
-3746 3800 0
-84 -3746 3747 0
-3747 3801 0
-85 -3747 3748 0
-3748 3802 0
-86 -3748 3749 0
-3749 3803 0
-87 -3749 3750 0
-3750 3804 0
-88 -3750 3751 0
-3751 3805 0
-89 -3751 3752 0
-3752 3806 0
-90 -3752 3753 0
-3753 3807 0
-91 -3753 3754 0
-3754 3808 0
-92 -3754 3755 0
-3755 3809 0
-93 -3755 3756 0
-3756 3810 0
-94 -3756 3757 0
-3757 3811 0
-95 -3757 3758 0
-3758 3812 0
-96 -3758 3759 0
-3759 3813 0
-97 -3759 3760 0
-3760 3814 0
-98 -3760 3761 0
-3761 3815 0
-99 -3761 3762 0
-3762 3816 0
-100 -3762 3763 0
-3763 3817 0
-101 -3763 3764 0
-3764 3818 0
-102 -3764 3765 0
-3765 3819 0
-103 -3765 3766 0
-3766 3820 0
-104 -3766 3767 0
-3767 3821 0
-105 -3767 3768 0
-3768 3822 0
-106 -3768 3769 0
-3769 3823 0
-107 -3769 3770 0
-3770 3824 0
-108 -3770 3771 0
-3771 3825 0
-109 -3771 3772 0
-3772 3826 0
-110 -3772 3773 0
-3773 3827 0
-111 -3773 3774 0
-3774 3828 0
-112 -3774 3775 0
-3775 3829 0
-113 -3775 3776 0
-3776 3830 0
-114 -3776 3777 0
-3777 3831 0
-115 -3777 3778 0
-3778 3832 0
-116 -3778 3779 0
-3779 3833 0
-117 -3779 0
-64 3780 0
-3780 3834 0
-65 -3780 3781 0
-3781 3835 0
-66 -3781 3782 0
-3782 3836 0
-67 -3782 3783 0
-3783 3837 0
-68 -3783 3784 0
-3784 3838 0
-69 -3784 3785 0
-3785 3839 0
-70 -3785 3786 0
-3786 3840 0
-71 -3786 3787 0
-3787 3841 0
-72 -3787 3788 0
-3788 3842 0
-73 -3788 3789 0
-3789 3843 0
-74 -3789 3790 0
-3790 3844 0
-75 -3790 3791 0
-3791 3845 0
-76 -3791 3792 0
-3792 3846 0
-77 -3792 3793 0
-3793 3847 0
-78 -3793 3794 0
-3794 3848 0
-79 -3794 3795 0
-3795 3849 0
-80 -3795 3796 0
-3796 3850 0
-81 -3796 3797 0
-3797 3851 0
-82 -3797 3798 0
-3798 3852 0
-83 -3798 3799 0
-3799 3853 0
-84 -3799 3800 0
-3800 3854 0
-85 -3800 3801 0
-3801 3855 0
-86 -3801 3802 0
-3802 3856 0
-87 -3802 3803 0
-3803 3857 0
-88 -3803 3804 0
-3804 3858 0
-89 -3804 3805 0
-3805 3859 0
-90 -3805 3806 0
-3806 3860 0
-91 -3806 3807 0
-3807 3861 0
-92 -3807 3808 0
-3808 3862 0
-93 -3808 3809 0
-3809 3863 0
-94 -3809 3810 0
-3810 3864 0
-95 -3810 3811 0
-3811 3865 0
-96 -3811 3812 0
-3812 3866 0
-97 -3812 3813 0
-3813 3867 0
-98 -3813 3814 0
-3814 3868 0
-99 -3814 3815 0
-3815 3869 0
-100 -3815 3816 0
-3816 3870 0
-101 -3816 3817 0
-3817 3871 0
-102 -3817 3818 0
-3818 3872 0
-103 -3818 3819 0
-3819 3873 0
-104 -3819 3820 0
-3820 3874 0
-105 -3820 3821 0
-3821 3875 0
-106 -3821 3822 0
-3822 3876 0
-107 -3822 3823 0
-3823 3877 0
-108 -3823 3824 0
-3824 3878 0
-109 -3824 3825 0
-3825 3879 0
-110 -3825 3826 0
-3826 3880 0
-111 -3826 3827 0
-3827 3881 0
-112 -3827 3828 0
-3828 3882 0
-113 -3828 3829 0
-3829 3883 0
-114 -3829 3830 0
-3830 3884 0
-115 -3830 3831 0
-3831 3885 0
-116 -3831 3832 0
-3832 3886 0
-117 -3832 3833 0
-3833 3887 0
-118 -3833 0
-65 3834 0
-3834 3888 0
-66 -3834 3835 0
-3835 3889 0
-67 -3835 3836 0
-3836 3890 0
-68 -3836 3837 0
-3837 3891 0
-69 -3837 3838 0
-3838 3892 0
-70 -3838 3839 0
-3839 3893 0
-71 -3839 3840 0
-3840 3894 0
-72 -3840 3841 0
-3841 3895 0
-73 -3841 3842 0
-3842 3896 0
-74 -3842 3843 0
-3843 3897 0
-75 -3843 3844 0
-3844 3898 0
-76 -3844 3845 0
-3845 3899 0
-77 -3845 3846 0
-3846 3900 0
-78 -3846 3847 0
-3847 3901 0
-79 -3847 3848 0
-3848 3902 0
-80 -3848 3849 0
-3849 3903 0
-81 -3849 3850 0
-3850 3904 0
-82 -3850 3851 0
-3851 3905 0
-83 -3851 3852 0
-3852 3906 0
-84 -3852 3853 0
-3853 3907 0
-85 -3853 3854 0
-3854 3908 0
-86 -3854 3855 0
-3855 3909 0
-87 -3855 3856 0
-3856 3910 0
-88 -3856 3857 0
-3857 3911 0
-89 -3857 3858 0
-3858 3912 0
-90 -3858 3859 0
-3859 3913 0
-91 -3859 3860 0
-3860 3914 0
-92 -3860 3861 0
-3861 3915 0
-93 -3861 3862 0
-3862 3916 0
-94 -3862 3863 0
-3863 3917 0
-95 -3863 3864 0
-3864 3918 0
-96 -3864 3865 0
-3865 3919 0
-97 -3865 3866 0
-3866 3920 0
-98 -3866 3867 0
-3867 3921 0
-99 -3867 3868 0
-3868 3922 0
-100 -3868 3869 0
-3869 3923 0
-101 -3869 3870 0
-3870 3924 0
-102 -3870 3871 0
-3871 3925 0
-103 -3871 3872 0
-3872 3926 0
-104 -3872 3873 0
-3873 3927 0
-105 -3873 3874 0
-3874 3928 0
-106 -3874 3875 0
-3875 3929 0
-107 -3875 3876 0
-3876 3930 0
-108 -3876 3877 0
-3877 3931 0
-109 -3877 3878 0
-3878 3932 0
-110 -3878 3879 0
-3879 3933 0
-111 -3879 3880 0
-3880 3934 0
-112 -3880 3881 0
-3881 3935 0
-113 -3881 3882 0
-3882 3936 0
-114 -3882 3883 0
-3883 3937 0
-115 -3883 3884 0
-3884 3938 0
-116 -3884 3885 0
-3885 3939 0
-117 -3885 3886 0
-3886 3940 0
-118 -3886 3887 0
-3887 3941 0
-119 -3887 0
-66 3888 0
-3888 3942 0
-67 -3888 3889 0
-3889 3943 0
-68 -3889 3890 0
-3890 3944 0
-69 -3890 3891 0
-3891 3945 0
-70 -3891 3892 0
-3892 3946 0
-71 -3892 3893 0
-3893 3947 0
-72 -3893 3894 0
-3894 3948 0
-73 -3894 3895 0
-3895 3949 0
-74 -3895 3896 0
-3896 3950 0
-75 -3896 3897 0
-3897 3951 0
-76 -3897 3898 0
-3898 3952 0
-77 -3898 3899 0
-3899 3953 0
-78 -3899 3900 0
-3900 3954 0
-79 -3900 3901 0
-3901 3955 0
-80 -3901 3902 0
-3902 3956 0
-81 -3902 3903 0
-3903 3957 0
-82 -3903 3904 0
-3904 3958 0
-83 -3904 3905 0
-3905 3959 0
-84 -3905 3906 0
-3906 3960 0
-85 -3906 3907 0
-3907 3961 0
-86 -3907 3908 0
-3908 3962 0
-87 -3908 3909 0
-3909 3963 0
-88 -3909 3910 0
-3910 3964 0
-89 -3910 3911 0
-3911 3965 0
-90 -3911 3912 0
-3912 3966 0
-91 -3912 3913 0
-3913 3967 0
-92 -3913 3914 0
-3914 3968 0
-93 -3914 3915 0
-3915 3969 0
-94 -3915 3916 0
-3916 3970 0
-95 -3916 3917 0
-3917 3971 0
-96 -3917 3918 0
-3918 3972 0
-97 -3918 3919 0
-3919 3973 0
-98 -3919 3920 0
-3920 3974 0
-99 -3920 3921 0
-3921 3975 0
-100 -3921 3922 0
-3922 3976 0
-101 -3922 3923 0
-3923 3977 0
-102 -3923 3924 0
-3924 3978 0
-103 -3924 3925 0
-3925 3979 0
-104 -3925 3926 0
-3926 3980 0
-105 -3926 3927 0
-3927 3981 0
-106 -3927 3928 0
-3928 3982 0
-107 -3928 3929 0
-3929 3983 0
-108 -3929 3930 0
-3930 3984 0
-109 -3930 3931 0
-3931 3985 0
-110 -3931 3932 0
-3932 3986 0
-111 -3932 3933 0
-3933 3987 0
-112 -3933 3934 0
-3934 3988 0
-113 -3934 3935 0
-3935 3989 0
-114 -3935 3936 0
-3936 3990 0
-115 -3936 3937 0
-3937 3991 0
-116 -3937 3938 0
-3938 3992 0
-117 -3938 3939 0
-3939 3993 0
-118 -3939 3940 0
-3940 3994 0
-119 -3940 3941 0
-3941 3995 0
-120 -3941 0
-67 3942 0
-3942 3996 0
-68 -3942 3943 0
-3943 3997 0
-69 -3943 3944 0
-3944 3998 0
-70 -3944 3945 0
-3945 3999 0
-71 -3945 3946 0
-3946 4000 0
-72 -3946 3947 0
-3947 4001 0
-73 -3947 3948 0
-3948 4002 0
-74 -3948 3949 0
-3949 4003 0
-75 -3949 3950 0
-3950 4004 0
-76 -3950 3951 0
-3951 4005 0
-77 -3951 3952 0
-3952 4006 0
-78 -3952 3953 0
-3953 4007 0
-79 -3953 3954 0
-3954 4008 0
-80 -3954 3955 0
-3955 4009 0
-81 -3955 3956 0
-3956 4010 0
-82 -3956 3957 0
-3957 4011 0
-83 -3957 3958 0
-3958 4012 0
-84 -3958 3959 0
-3959 4013 0
-85 -3959 3960 0
-3960 4014 0
-86 -3960 3961 0
-3961 4015 0
-87 -3961 3962 0
-3962 4016 0
-88 -3962 3963 0
-3963 4017 0
-89 -3963 3964 0
-3964 4018 0
-90 -3964 3965 0
-3965 4019 0
-91 -3965 3966 0
-3966 4020 0
-92 -3966 3967 0
-3967 4021 0
-93 -3967 3968 0
-3968 4022 0
-94 -3968 3969 0
-3969 4023 0
-95 -3969 3970 0
-3970 4024 0
-96 -3970 3971 0
-3971 4025 0
-97 -3971 3972 0
-3972 4026 0
-98 -3972 3973 0
-3973 4027 0
-99 -3973 3974 0
-3974 4028 0
-100 -3974 3975 0
-3975 4029 0
-101 -3975 3976 0
-3976 4030 0
-102 -3976 3977 0
-3977 4031 0
-103 -3977 3978 0
-3978 4032 0
-104 -3978 3979 0
-3979 4033 0
-105 -3979 3980 0
-3980 4034 0
-106 -3980 3981 0
-3981 4035 0
-107 -3981 3982 0
-3982 4036 0
-108 -3982 3983 0
-3983 4037 0
-109 -3983 3984 0
-3984 4038 0
-110 -3984 3985 0
-3985 4039 0
-111 -3985 3986 0
-3986 4040 0
-112 -3986 3987 0
-3987 4041 0
-113 -3987 3988 0
-3988 4042 0
-114 -3988 3989 0
-3989 4043 0
-115 -3989 3990 0
-3990 4044 0
-116 -3990 3991 0
-3991 4045 0
-117 -3991 3992 0
-3992 4046 0
-118 -3992 3993 0
-3993 4047 0
-119 -3993 3994 0
-3994 4048 0
-120 -3994 3995 0
-3995 4049 0
-121 -3995 0
-68 3996 0
-3996 4050 0
-69 -3996 3997 0
-3997 4051 0
-70 -3997 3998 0
-3998 4052 0
-71 -3998 3999 0
-3999 4053 0
-72 -3999 4000 0
-4000 4054 0
-73 -4000 4001 0
-4001 4055 0
-74 -4001 4002 0
-4002 4056 0
-75 -4002 4003 0
-4003 4057 0
-76 -4003 4004 0
-4004 4058 0
-77 -4004 4005 0
-4005 4059 0
-78 -4005 4006 0
-4006 4060 0
-79 -4006 4007 0
-4007 4061 0
-80 -4007 4008 0
-4008 4062 0
-81 -4008 4009 0
-4009 4063 0
-82 -4009 4010 0
-4010 4064 0
-83 -4010 4011 0
-4011 4065 0
-84 -4011 4012 0
-4012 4066 0
-85 -4012 4013 0
-4013 4067 0
-86 -4013 4014 0
-4014 4068 0
-87 -4014 4015 0
-4015 4069 0
-88 -4015 4016 0
-4016 4070 0
-89 -4016 4017 0
-4017 4071 0
-90 -4017 4018 0
-4018 4072 0
-91 -4018 4019 0
-4019 4073 0
-92 -4019 4020 0
-4020 4074 0
-93 -4020 4021 0
-4021 4075 0
-94 -4021 4022 0
-4022 4076 0
-95 -4022 4023 0
-4023 4077 0
-96 -4023 4024 0
-4024 4078 0
-97 -4024 4025 0
-4025 4079 0
-98 -4025 4026 0
-4026 4080 0
-99 -4026 4027 0
-4027 4081 0
-100 -4027 4028 0
-4028 4082 0
-101 -4028 4029 0
-4029 4083 0
-102 -4029 4030 0
-4030 4084 0
-103 -4030 4031 0
-4031 4085 0
-104 -4031 4032 0
-4032 4086 0
-105 -4032 4033 0
-4033 4087 0
-106 -4033 4034 0
-4034 4088 0
-107 -4034 4035 0
-4035 4089 0
-108 -4035 4036 0
-4036 4090 0
-109 -4036 4037 0
-4037 4091 0
-110 -4037 4038 0
-4038 4092 0
-111 -4038 4039 0
-4039 4093 0
-112 -4039 4040 0
-4040 4094 0
-113 -4040 4041 0
-4041 4095 0
-114 -4041 4042 0
-4042 4096 0
-115 -4042 4043 0
-4043 4097 0
-116 -4043 4044 0
-4044 4098 0
-117 -4044 4045 0
-4045 4099 0
-118 -4045 4046 0
-4046 4100 0
-119 -4046 4047 0
-4047 4101 0
-120 -4047 4048 0
-4048 4102 0
-121 -4048 4049 0
-4049 4103 0
-122 -4049 0
-69 4050 0
-4050 4104 0
-70 -4050 4051 0
-4051 4105 0
-71 -4051 4052 0
-4052 4106 0
-72 -4052 4053 0
-4053 4107 0
-73 -4053 4054 0
-4054 4108 0
-74 -4054 4055 0
-4055 4109 0
-75 -4055 4056 0
-4056 4110 0
-76 -4056 4057 0
-4057 4111 0
-77 -4057 4058 0
-4058 4112 0
-78 -4058 4059 0
-4059 4113 0
-79 -4059 4060 0
-4060 4114 0
-80 -4060 4061 0
-4061 4115 0
-81 -4061 4062 0
-4062 4116 0
-82 -4062 4063 0
-4063 4117 0
-83 -4063 4064 0
-4064 4118 0
-84 -4064 4065 0
-4065 4119 0
-85 -4065 4066 0
-4066 4120 0
-86 -4066 4067 0
-4067 4121 0
-87 -4067 4068 0
-4068 4122 0
-88 -4068 4069 0
-4069 4123 0
-89 -4069 4070 0
-4070 4124 0
-90 -4070 4071 0
-4071 4125 0
-91 -4071 4072 0
-4072 4126 0
-92 -4072 4073 0
-4073 4127 0
-93 -4073 4074 0
-4074 4128 0
-94 -4074 4075 0
-4075 4129 0
-95 -4075 4076 0
-4076 4130 0
-96 -4076 4077 0
-4077 4131 0
-97 -4077 4078 0
-4078 4132 0
-98 -4078 4079 0
-4079 4133 0
-99 -4079 4080 0
-4080 4134 0
-100 -4080 4081 0
-4081 4135 0
-101 -4081 4082 0
-4082 4136 0
-102 -4082 4083 0
-4083 4137 0
-103 -4083 4084 0
-4084 4138 0
-104 -4084 4085 0
-4085 4139 0
-105 -4085 4086 0
-4086 4140 0
-106 -4086 4087 0
-4087 4141 0
-107 -4087 4088 0
-4088 4142 0
-108 -4088 4089 0
-4089 4143 0
-109 -4089 4090 0
-4090 4144 0
-110 -4090 4091 0
-4091 4145 0
-111 -4091 4092 0
-4092 4146 0
-112 -4092 4093 0
-4093 4147 0
-113 -4093 4094 0
-4094 4148 0
-114 -4094 4095 0
-4095 4149 0
-115 -4095 4096 0
-4096 4150 0
-116 -4096 4097 0
-4097 4151 0
-117 -4097 4098 0
-4098 4152 0
-118 -4098 4099 0
-4099 4153 0
-119 -4099 4100 0
-4100 4154 0
-120 -4100 4101 0
-4101 4155 0
-121 -4101 4102 0
-4102 4156 0
-122 -4102 4103 0
-4103 4157 0
-123 -4103 0
-70 4104 0
-4104 4158 0
-71 -4104 4105 0
-4105 4159 0
-72 -4105 4106 0
-4106 4160 0
-73 -4106 4107 0
-4107 4161 0
-74 -4107 4108 0
-4108 4162 0
-75 -4108 4109 0
-4109 4163 0
-76 -4109 4110 0
-4110 4164 0
-77 -4110 4111 0
-4111 4165 0
-78 -4111 4112 0
-4112 4166 0
-79 -4112 4113 0
-4113 4167 0
-80 -4113 4114 0
-4114 4168 0
-81 -4114 4115 0
-4115 4169 0
-82 -4115 4116 0
-4116 4170 0
-83 -4116 4117 0
-4117 4171 0
-84 -4117 4118 0
-4118 4172 0
-85 -4118 4119 0
-4119 4173 0
-86 -4119 4120 0
-4120 4174 0
-87 -4120 4121 0
-4121 4175 0
-88 -4121 4122 0
-4122 4176 0
-89 -4122 4123 0
-4123 4177 0
-90 -4123 4124 0
-4124 4178 0
-91 -4124 4125 0
-4125 4179 0
-92 -4125 4126 0
-4126 4180 0
-93 -4126 4127 0
-4127 4181 0
-94 -4127 4128 0
-4128 4182 0
-95 -4128 4129 0
-4129 4183 0
-96 -4129 4130 0
-4130 4184 0
-97 -4130 4131 0
-4131 4185 0
-98 -4131 4132 0
-4132 4186 0
-99 -4132 4133 0
-4133 4187 0
-100 -4133 4134 0
-4134 4188 0
-101 -4134 4135 0
-4135 4189 0
-102 -4135 4136 0
-4136 4190 0
-103 -4136 4137 0
-4137 4191 0
-104 -4137 4138 0
-4138 4192 0
-105 -4138 4139 0
-4139 4193 0
-106 -4139 4140 0
-4140 4194 0
-107 -4140 4141 0
-4141 4195 0
-108 -4141 4142 0
-4142 4196 0
-109 -4142 4143 0
-4143 4197 0
-110 -4143 4144 0
-4144 4198 0
-111 -4144 4145 0
-4145 4199 0
-112 -4145 4146 0
-4146 4200 0
-113 -4146 4147 0
-4147 4201 0
-114 -4147 4148 0
-4148 4202 0
-115 -4148 4149 0
-4149 4203 0
-116 -4149 4150 0
-4150 4204 0
-117 -4150 4151 0
-4151 4205 0
-118 -4151 4152 0
-4152 4206 0
-119 -4152 4153 0
-4153 4207 0
-120 -4153 4154 0
-4154 4208 0
-121 -4154 4155 0
-4155 4209 0
-122 -4155 4156 0
-4156 4210 0
-123 -4156 4157 0
-4157 4211 0
-124 -4157 0
-71 4158 0
-4158 4212 0
-72 -4158 4159 0
-4159 4213 0
-73 -4159 4160 0
-4160 4214 0
-74 -4160 4161 0
-4161 4215 0
-75 -4161 4162 0
-4162 4216 0
-76 -4162 4163 0
-4163 4217 0
-77 -4163 4164 0
-4164 4218 0
-78 -4164 4165 0
-4165 4219 0
-79 -4165 4166 0
-4166 4220 0
-80 -4166 4167 0
-4167 4221 0
-81 -4167 4168 0
-4168 4222 0
-82 -4168 4169 0
-4169 4223 0
-83 -4169 4170 0
-4170 4224 0
-84 -4170 4171 0
-4171 4225 0
-85 -4171 4172 0
-4172 4226 0
-86 -4172 4173 0
-4173 4227 0
-87 -4173 4174 0
-4174 4228 0
-88 -4174 4175 0
-4175 4229 0
-89 -4175 4176 0
-4176 4230 0
-90 -4176 4177 0
-4177 4231 0
-91 -4177 4178 0
-4178 4232 0
-92 -4178 4179 0
-4179 4233 0
-93 -4179 4180 0
-4180 4234 0
-94 -4180 4181 0
-4181 4235 0
-95 -4181 4182 0
-4182 4236 0
-96 -4182 4183 0
-4183 4237 0
-97 -4183 4184 0
-4184 4238 0
-98 -4184 4185 0
-4185 4239 0
-99 -4185 4186 0
-4186 4240 0
-100 -4186 4187 0
-4187 4241 0
-101 -4187 4188 0
-4188 4242 0
-102 -4188 4189 0
-4189 4243 0
-103 -4189 4190 0
-4190 4244 0
-104 -4190 4191 0
-4191 4245 0
-105 -4191 4192 0
-4192 4246 0
-106 -4192 4193 0
-4193 4247 0
-107 -4193 4194 0
-4194 4248 0
-108 -4194 4195 0
-4195 4249 0
-109 -4195 4196 0
-4196 4250 0
-110 -4196 4197 0
-4197 4251 0
-111 -4197 4198 0
-4198 4252 0
-112 -4198 4199 0
-4199 4253 0
-113 -4199 4200 0
-4200 4254 0
-114 -4200 4201 0
-4201 4255 0
-115 -4201 4202 0
-4202 4256 0
-116 -4202 4203 0
-4203 4257 0
-117 -4203 4204 0
-4204 4258 0
-118 -4204 4205 0
-4205 4259 0
-119 -4205 4206 0
-4206 4260 0
-120 -4206 4207 0
-4207 4261 0
-121 -4207 4208 0
-4208 4262 0
-122 -4208 4209 0
-4209 4263 0
-123 -4209 4210 0
-4210 4264 0
-124 -4210 4211 0
-4211 4265 0
-125 -4211 0
-72 4212 0
-4212 4266 0
-73 -4212 4213 0
-4213 4267 0
-74 -4213 4214 0
-4214 4268 0
-75 -4214 4215 0
-4215 4269 0
-76 -4215 4216 0
-4216 4270 0
-77 -4216 4217 0
-4217 4271 0
-78 -4217 4218 0
-4218 4272 0
-79 -4218 4219 0
-4219 4273 0
-80 -4219 4220 0
-4220 4274 0
-81 -4220 4221 0
-4221 4275 0
-82 -4221 4222 0
-4222 4276 0
-83 -4222 4223 0
-4223 4277 0
-84 -4223 4224 0
-4224 4278 0
-85 -4224 4225 0
-4225 4279 0
-86 -4225 4226 0
-4226 4280 0
-87 -4226 4227 0
-4227 4281 0
-88 -4227 4228 0
-4228 4282 0
-89 -4228 4229 0
-4229 4283 0
-90 -4229 4230 0
-4230 4284 0
-91 -4230 4231 0
-4231 4285 0
-92 -4231 4232 0
-4232 4286 0
-93 -4232 4233 0
-4233 4287 0
-94 -4233 4234 0
-4234 4288 0
-95 -4234 4235 0
-4235 4289 0
-96 -4235 4236 0
-4236 4290 0
-97 -4236 4237 0
-4237 4291 0
-98 -4237 4238 0
-4238 4292 0
-99 -4238 4239 0
-4239 4293 0
-100 -4239 4240 0
-4240 4294 0
-101 -4240 4241 0
-4241 4295 0
-102 -4241 4242 0
-4242 4296 0
-103 -4242 4243 0
-4243 4297 0
-104 -4243 4244 0
-4244 4298 0
-105 -4244 4245 0
-4245 4299 0
-106 -4245 4246 0
-4246 4300 0
-107 -4246 4247 0
-4247 4301 0
-108 -4247 4248 0
-4248 4302 0
-109 -4248 4249 0
-4249 4303 0
-110 -4249 4250 0
-4250 4304 0
-111 -4250 4251 0
-4251 4305 0
-112 -4251 4252 0
-4252 4306 0
-113 -4252 4253 0
-4253 4307 0
-114 -4253 4254 0
-4254 4308 0
-115 -4254 4255 0
-4255 4309 0
-116 -4255 4256 0
-4256 4310 0
-117 -4256 4257 0
-4257 4311 0
-118 -4257 4258 0
-4258 4312 0
-119 -4258 4259 0
-4259 4313 0
-120 -4259 4260 0
-4260 4314 0
-121 -4260 4261 0
-4261 4315 0
-122 -4261 4262 0
-4262 4316 0
-123 -4262 4263 0
-4263 4317 0
-124 -4263 4264 0
-4264 4318 0
-125 -4264 4265 0
-4265 4319 0
-126 -4265 0
-73 4266 0
-4266 4320 0
-74 -4266 4267 0
-4267 4321 0
-75 -4267 4268 0
-4268 4322 0
-76 -4268 4269 0
-4269 4323 0
-77 -4269 4270 0
-4270 4324 0
-78 -4270 4271 0
-4271 4325 0
-79 -4271 4272 0
-4272 4326 0
-80 -4272 4273 0
-4273 4327 0
-81 -4273 4274 0
-4274 4328 0
-82 -4274 4275 0
-4275 4329 0
-83 -4275 4276 0
-4276 4330 0
-84 -4276 4277 0
-4277 4331 0
-85 -4277 4278 0
-4278 4332 0
-86 -4278 4279 0
-4279 4333 0
-87 -4279 4280 0
-4280 4334 0
-88 -4280 4281 0
-4281 4335 0
-89 -4281 4282 0
-4282 4336 0
-90 -4282 4283 0
-4283 4337 0
-91 -4283 4284 0
-4284 4338 0
-92 -4284 4285 0
-4285 4339 0
-93 -4285 4286 0
-4286 4340 0
-94 -4286 4287 0
-4287 4341 0
-95 -4287 4288 0
-4288 4342 0
-96 -4288 4289 0
-4289 4343 0
-97 -4289 4290 0
-4290 4344 0
-98 -4290 4291 0
-4291 4345 0
-99 -4291 4292 0
-4292 4346 0
-100 -4292 4293 0
-4293 4347 0
-101 -4293 4294 0
-4294 4348 0
-102 -4294 4295 0
-4295 4349 0
-103 -4295 4296 0
-4296 4350 0
-104 -4296 4297 0
-4297 4351 0
-105 -4297 4298 0
-4298 4352 0
-106 -4298 4299 0
-4299 4353 0
-107 -4299 4300 0
-4300 4354 0
-108 -4300 4301 0
-4301 4355 0
-109 -4301 4302 0
-4302 4356 0
-110 -4302 4303 0
-4303 4357 0
-111 -4303 4304 0
-4304 4358 0
-112 -4304 4305 0
-4305 4359 0
-113 -4305 4306 0
-4306 4360 0
-114 -4306 4307 0
-4307 4361 0
-115 -4307 4308 0
-4308 4362 0
-116 -4308 4309 0
-4309 4363 0
-117 -4309 4310 0
-4310 4364 0
-118 -4310 4311 0
-4311 4365 0
-119 -4311 4312 0
-4312 4366 0
-120 -4312 4313 0
-4313 4367 0
-121 -4313 4314 0
-4314 4368 0
-122 -4314 4315 0
-4315 4369 0
-123 -4315 4316 0
-4316 4370 0
-124 -4316 4317 0
-4317 4371 0
-125 -4317 4318 0
-4318 4372 0
-126 -4318 4319 0
-4319 4373 0
-127 -4319 0
-74 4320 0
-4320 4374 0
-75 -4320 4321 0
-4321 4375 0
-76 -4321 4322 0
-4322 4376 0
-77 -4322 4323 0
-4323 4377 0
-78 -4323 4324 0
-4324 4378 0
-79 -4324 4325 0
-4325 4379 0
-80 -4325 4326 0
-4326 4380 0
-81 -4326 4327 0
-4327 4381 0
-82 -4327 4328 0
-4328 4382 0
-83 -4328 4329 0
-4329 4383 0
-84 -4329 4330 0
-4330 4384 0
-85 -4330 4331 0
-4331 4385 0
-86 -4331 4332 0
-4332 4386 0
-87 -4332 4333 0
-4333 4387 0
-88 -4333 4334 0
-4334 4388 0
-89 -4334 4335 0
-4335 4389 0
-90 -4335 4336 0
-4336 4390 0
-91 -4336 4337 0
-4337 4391 0
-92 -4337 4338 0
-4338 4392 0
-93 -4338 4339 0
-4339 4393 0
-94 -4339 4340 0
-4340 4394 0
-95 -4340 4341 0
-4341 4395 0
-96 -4341 4342 0
-4342 4396 0
-97 -4342 4343 0
-4343 4397 0
-98 -4343 4344 0
-4344 4398 0
-99 -4344 4345 0
-4345 4399 0
-100 -4345 4346 0
-4346 4400 0
-101 -4346 4347 0
-4347 4401 0
-102 -4347 4348 0
-4348 4402 0
-103 -4348 4349 0
-4349 4403 0
-104 -4349 4350 0
-4350 4404 0
-105 -4350 4351 0
-4351 4405 0
-106 -4351 4352 0
-4352 4406 0
-107 -4352 4353 0
-4353 4407 0
-108 -4353 4354 0
-4354 4408 0
-109 -4354 4355 0
-4355 4409 0
-110 -4355 4356 0
-4356 4410 0
-111 -4356 4357 0
-4357 4411 0
-112 -4357 4358 0
-4358 4412 0
-113 -4358 4359 0
-4359 4413 0
-114 -4359 4360 0
-4360 4414 0
-115 -4360 4361 0
-4361 4415 0
-116 -4361 4362 0
-4362 4416 0
-117 -4362 4363 0
-4363 4417 0
-118 -4363 4364 0
-4364 4418 0
-119 -4364 4365 0
-4365 4419 0
-120 -4365 4366 0
-4366 4420 0
-121 -4366 4367 0
-4367 4421 0
-122 -4367 4368 0
-4368 4422 0
-123 -4368 4369 0
-4369 4423 0
-124 -4369 4370 0
-4370 4424 0
-125 -4370 4371 0
-4371 4425 0
-126 -4371 4372 0
-4372 4426 0
-127 -4372 4373 0
-4373 4427 0
-128 -4373 0
-75 4374 0
-4374 4428 0
-76 -4374 4375 0
-4375 4429 0
-77 -4375 4376 0
-4376 4430 0
-78 -4376 4377 0
-4377 4431 0
-79 -4377 4378 0
-4378 4432 0
-80 -4378 4379 0
-4379 4433 0
-81 -4379 4380 0
-4380 4434 0
-82 -4380 4381 0
-4381 4435 0
-83 -4381 4382 0
-4382 4436 0
-84 -4382 4383 0
-4383 4437 0
-85 -4383 4384 0
-4384 4438 0
-86 -4384 4385 0
-4385 4439 0
-87 -4385 4386 0
-4386 4440 0
-88 -4386 4387 0
-4387 4441 0
-89 -4387 4388 0
-4388 4442 0
-90 -4388 4389 0
-4389 4443 0
-91 -4389 4390 0
-4390 4444 0
-92 -4390 4391 0
-4391 4445 0
-93 -4391 4392 0
-4392 4446 0
-94 -4392 4393 0
-4393 4447 0
-95 -4393 4394 0
-4394 4448 0
-96 -4394 4395 0
-4395 4449 0
-97 -4395 4396 0
-4396 4450 0
-98 -4396 4397 0
-4397 4451 0
-99 -4397 4398 0
-4398 4452 0
-100 -4398 4399 0
-4399 4453 0
-101 -4399 4400 0
-4400 4454 0
-102 -4400 4401 0
-4401 4455 0
-103 -4401 4402 0
-4402 4456 0
-104 -4402 4403 0
-4403 4457 0
-105 -4403 4404 0
-4404 4458 0
-106 -4404 4405 0
-4405 4459 0
-107 -4405 4406 0
-4406 4460 0
-108 -4406 4407 0
-4407 4461 0
-109 -4407 4408 0
-4408 4462 0
-110 -4408 4409 0
-4409 4463 0
-111 -4409 4410 0
-4410 4464 0
-112 -4410 4411 0
-4411 4465 0
-113 -4411 4412 0
-4412 4466 0
-114 -4412 4413 0
-4413 4467 0
-115 -4413 4414 0
-4414 4468 0
-116 -4414 4415 0
-4415 4469 0
-117 -4415 4416 0
-4416 4470 0
-118 -4416 4417 0
-4417 4471 0
-119 -4417 4418 0
-4418 4472 0
-120 -4418 4419 0
-4419 4473 0
-121 -4419 4420 0
-4420 4474 0
-122 -4420 4421 0
-4421 4475 0
-123 -4421 4422 0
-4422 4476 0
-124 -4422 4423 0
-4423 4477 0
-125 -4423 4424 0
-4424 4478 0
-126 -4424 4425 0
-4425 4479 0
-127 -4425 4426 0
-4426 4480 0
-128 -4426 4427 0
-4427 4481 0
-129 -4427 0
-76 4428 0
-4428 4482 0
-77 -4428 4429 0
-4429 4483 0
-78 -4429 4430 0
-4430 4484 0
-79 -4430 4431 0
-4431 4485 0
-80 -4431 4432 0
-4432 4486 0
-81 -4432 4433 0
-4433 4487 0
-82 -4433 4434 0
-4434 4488 0
-83 -4434 4435 0
-4435 4489 0
-84 -4435 4436 0
-4436 4490 0
-85 -4436 4437 0
-4437 4491 0
-86 -4437 4438 0
-4438 4492 0
-87 -4438 4439 0
-4439 4493 0
-88 -4439 4440 0
-4440 4494 0
-89 -4440 4441 0
-4441 4495 0
-90 -4441 4442 0
-4442 4496 0
-91 -4442 4443 0
-4443 4497 0
-92 -4443 4444 0
-4444 4498 0
-93 -4444 4445 0
-4445 4499 0
-94 -4445 4446 0
-4446 4500 0
-95 -4446 4447 0
-4447 4501 0
-96 -4447 4448 0
-4448 4502 0
-97 -4448 4449 0
-4449 4503 0
-98 -4449 4450 0
-4450 4504 0
-99 -4450 4451 0
-4451 4505 0
-100 -4451 4452 0
-4452 4506 0
-101 -4452 4453 0
-4453 4507 0
-102 -4453 4454 0
-4454 4508 0
-103 -4454 4455 0
-4455 4509 0
-104 -4455 4456 0
-4456 4510 0
-105 -4456 4457 0
-4457 4511 0
-106 -4457 4458 0
-4458 4512 0
-107 -4458 4459 0
-4459 4513 0
-108 -4459 4460 0
-4460 4514 0
-109 -4460 4461 0
-4461 4515 0
-110 -4461 4462 0
-4462 4516 0
-111 -4462 4463 0
-4463 4517 0
-112 -4463 4464 0
-4464 4518 0
-113 -4464 4465 0
-4465 4519 0
-114 -4465 4466 0
-4466 4520 0
-115 -4466 4467 0
-4467 4521 0
-116 -4467 4468 0
-4468 4522 0
-117 -4468 4469 0
-4469 4523 0
-118 -4469 4470 0
-4470 4524 0
-119 -4470 4471 0
-4471 4525 0
-120 -4471 4472 0
-4472 4526 0
-121 -4472 4473 0
-4473 4527 0
-122 -4473 4474 0
-4474 4528 0
-123 -4474 4475 0
-4475 4529 0
-124 -4475 4476 0
-4476 4530 0
-125 -4476 4477 0
-4477 4531 0
-126 -4477 4478 0
-4478 4532 0
-127 -4478 4479 0
-4479 4533 0
-128 -4479 4480 0
-4480 4534 0
-129 -4480 4481 0
-4481 4535 0
-130 -4481 0
-77 4482 0
-4482 4536 0
-78 -4482 4483 0
-4483 4537 0
-79 -4483 4484 0
-4484 4538 0
-80 -4484 4485 0
-4485 4539 0
-81 -4485 4486 0
-4486 4540 0
-82 -4486 4487 0
-4487 4541 0
-83 -4487 4488 0
-4488 4542 0
-84 -4488 4489 0
-4489 4543 0
-85 -4489 4490 0
-4490 4544 0
-86 -4490 4491 0
-4491 4545 0
-87 -4491 4492 0
-4492 4546 0
-88 -4492 4493 0
-4493 4547 0
-89 -4493 4494 0
-4494 4548 0
-90 -4494 4495 0
-4495 4549 0
-91 -4495 4496 0
-4496 4550 0
-92 -4496 4497 0
-4497 4551 0
-93 -4497 4498 0
-4498 4552 0
-94 -4498 4499 0
-4499 4553 0
-95 -4499 4500 0
-4500 4554 0
-96 -4500 4501 0
-4501 4555 0
-97 -4501 4502 0
-4502 4556 0
-98 -4502 4503 0
-4503 4557 0
-99 -4503 4504 0
-4504 4558 0
-100 -4504 4505 0
-4505 4559 0
-101 -4505 4506 0
-4506 4560 0
-102 -4506 4507 0
-4507 4561 0
-103 -4507 4508 0
-4508 4562 0
-104 -4508 4509 0
-4509 4563 0
-105 -4509 4510 0
-4510 4564 0
-106 -4510 4511 0
-4511 4565 0
-107 -4511 4512 0
-4512 4566 0
-108 -4512 4513 0
-4513 4567 0
-109 -4513 4514 0
-4514 4568 0
-110 -4514 4515 0
-4515 4569 0
-111 -4515 4516 0
-4516 4570 0
-112 -4516 4517 0
-4517 4571 0
-113 -4517 4518 0
-4518 4572 0
-114 -4518 4519 0
-4519 4573 0
-115 -4519 4520 0
-4520 4574 0
-116 -4520 4521 0
-4521 4575 0
-117 -4521 4522 0
-4522 4576 0
-118 -4522 4523 0
-4523 4577 0
-119 -4523 4524 0
-4524 4578 0
-120 -4524 4525 0
-4525 4579 0
-121 -4525 4526 0
-4526 4580 0
-122 -4526 4527 0
-4527 4581 0
-123 -4527 4528 0
-4528 4582 0
-124 -4528 4529 0
-4529 4583 0
-125 -4529 4530 0
-4530 4584 0
-126 -4530 4531 0
-4531 4585 0
-127 -4531 4532 0
-4532 4586 0
-128 -4532 4533 0
-4533 4587 0
-129 -4533 4534 0
-4534 4588 0
-130 -4534 4535 0
-4535 4589 0
-131 -4535 0
-78 4536 0
-4536 4590 0
-79 -4536 4537 0
-4537 4591 0
-80 -4537 4538 0
-4538 4592 0
-81 -4538 4539 0
-4539 4593 0
-82 -4539 4540 0
-4540 4594 0
-83 -4540 4541 0
-4541 4595 0
-84 -4541 4542 0
-4542 4596 0
-85 -4542 4543 0
-4543 4597 0
-86 -4543 4544 0
-4544 4598 0
-87 -4544 4545 0
-4545 4599 0
-88 -4545 4546 0
-4546 4600 0
-89 -4546 4547 0
-4547 4601 0
-90 -4547 4548 0
-4548 4602 0
-91 -4548 4549 0
-4549 4603 0
-92 -4549 4550 0
-4550 4604 0
-93 -4550 4551 0
-4551 4605 0
-94 -4551 4552 0
-4552 4606 0
-95 -4552 4553 0
-4553 4607 0
-96 -4553 4554 0
-4554 4608 0
-97 -4554 4555 0
-4555 4609 0
-98 -4555 4556 0
-4556 4610 0
-99 -4556 4557 0
-4557 4611 0
-100 -4557 4558 0
-4558 4612 0
-101 -4558 4559 0
-4559 4613 0
-102 -4559 4560 0
-4560 4614 0
-103 -4560 4561 0
-4561 4615 0
-104 -4561 4562 0
-4562 4616 0
-105 -4562 4563 0
-4563 4617 0
-106 -4563 4564 0
-4564 4618 0
-107 -4564 4565 0
-4565 4619 0
-108 -4565 4566 0
-4566 4620 0
-109 -4566 4567 0
-4567 4621 0
-110 -4567 4568 0
-4568 4622 0
-111 -4568 4569 0
-4569 4623 0
-112 -4569 4570 0
-4570 4624 0
-113 -4570 4571 0
-4571 4625 0
-114 -4571 4572 0
-4572 4626 0
-115 -4572 4573 0
-4573 4627 0
-116 -4573 4574 0
-4574 4628 0
-117 -4574 4575 0
-4575 4629 0
-118 -4575 4576 0
-4576 4630 0
-119 -4576 4577 0
-4577 4631 0
-120 -4577 4578 0
-4578 4632 0
-121 -4578 4579 0
-4579 4633 0
-122 -4579 4580 0
-4580 4634 0
-123 -4580 4581 0
-4581 4635 0
-124 -4581 4582 0
-4582 4636 0
-125 -4582 4583 0
-4583 4637 0
-126 -4583 4584 0
-4584 4638 0
-127 -4584 4585 0
-4585 4639 0
-128 -4585 4586 0
-4586 4640 0
-129 -4586 4587 0
-4587 4641 0
-130 -4587 4588 0
-4588 4642 0
-131 -4588 4589 0
-4589 4643 0
-132 -4589 0
-79 4590 0
-4590 4644 0
-80 -4590 4591 0
-4591 4645 0
-81 -4591 4592 0
-4592 4646 0
-82 -4592 4593 0
-4593 4647 0
-83 -4593 4594 0
-4594 4648 0
-84 -4594 4595 0
-4595 4649 0
-85 -4595 4596 0
-4596 4650 0
-86 -4596 4597 0
-4597 4651 0
-87 -4597 4598 0
-4598 4652 0
-88 -4598 4599 0
-4599 4653 0
-89 -4599 4600 0
-4600 4654 0
-90 -4600 4601 0
-4601 4655 0
-91 -4601 4602 0
-4602 4656 0
-92 -4602 4603 0
-4603 4657 0
-93 -4603 4604 0
-4604 4658 0
-94 -4604 4605 0
-4605 4659 0
-95 -4605 4606 0
-4606 4660 0
-96 -4606 4607 0
-4607 4661 0
-97 -4607 4608 0
-4608 4662 0
-98 -4608 4609 0
-4609 4663 0
-99 -4609 4610 0
-4610 4664 0
-100 -4610 4611 0
-4611 4665 0
-101 -4611 4612 0
-4612 4666 0
-102 -4612 4613 0
-4613 4667 0
-103 -4613 4614 0
-4614 4668 0
-104 -4614 4615 0
-4615 4669 0
-105 -4615 4616 0
-4616 4670 0
-106 -4616 4617 0
-4617 4671 0
-107 -4617 4618 0
-4618 4672 0
-108 -4618 4619 0
-4619 4673 0
-109 -4619 4620 0
-4620 4674 0
-110 -4620 4621 0
-4621 4675 0
-111 -4621 4622 0
-4622 4676 0
-112 -4622 4623 0
-4623 4677 0
-113 -4623 4624 0
-4624 4678 0
-114 -4624 4625 0
-4625 4679 0
-115 -4625 4626 0
-4626 4680 0
-116 -4626 4627 0
-4627 4681 0
-117 -4627 4628 0
-4628 4682 0
-118 -4628 4629 0
-4629 4683 0
-119 -4629 4630 0
-4630 4684 0
-120 -4630 4631 0
-4631 4685 0
-121 -4631 4632 0
-4632 4686 0
-122 -4632 4633 0
-4633 4687 0
-123 -4633 4634 0
-4634 4688 0
-124 -4634 4635 0
-4635 4689 0
-125 -4635 4636 0
-4636 4690 0
-126 -4636 4637 0
-4637 4691 0
-127 -4637 4638 0
-4638 4692 0
-128 -4638 4639 0
-4639 4693 0
-129 -4639 4640 0
-4640 4694 0
-130 -4640 4641 0
-4641 4695 0
-131 -4641 4642 0
-4642 4696 0
-132 -4642 4643 0
-4643 4697 0
-133 -4643 0
-80 4644 0
-4644 4698 0
-81 -4644 4645 0
-4645 4699 0
-82 -4645 4646 0
-4646 4700 0
-83 -4646 4647 0
-4647 4701 0
-84 -4647 4648 0
-4648 4702 0
-85 -4648 4649 0
-4649 4703 0
-86 -4649 4650 0
-4650 4704 0
-87 -4650 4651 0
-4651 4705 0
-88 -4651 4652 0
-4652 4706 0
-89 -4652 4653 0
-4653 4707 0
-90 -4653 4654 0
-4654 4708 0
-91 -4654 4655 0
-4655 4709 0
-92 -4655 4656 0
-4656 4710 0
-93 -4656 4657 0
-4657 4711 0
-94 -4657 4658 0
-4658 4712 0
-95 -4658 4659 0
-4659 4713 0
-96 -4659 4660 0
-4660 4714 0
-97 -4660 4661 0
-4661 4715 0
-98 -4661 4662 0
-4662 4716 0
-99 -4662 4663 0
-4663 4717 0
-100 -4663 4664 0
-4664 4718 0
-101 -4664 4665 0
-4665 4719 0
-102 -4665 4666 0
-4666 4720 0
-103 -4666 4667 0
-4667 4721 0
-104 -4667 4668 0
-4668 4722 0
-105 -4668 4669 0
-4669 4723 0
-106 -4669 4670 0
-4670 4724 0
-107 -4670 4671 0
-4671 4725 0
-108 -4671 4672 0
-4672 4726 0
-109 -4672 4673 0
-4673 4727 0
-110 -4673 4674 0
-4674 4728 0
-111 -4674 4675 0
-4675 4729 0
-112 -4675 4676 0
-4676 4730 0
-113 -4676 4677 0
-4677 4731 0
-114 -4677 4678 0
-4678 4732 0
-115 -4678 4679 0
-4679 4733 0
-116 -4679 4680 0
-4680 4734 0
-117 -4680 4681 0
-4681 4735 0
-118 -4681 4682 0
-4682 4736 0
-119 -4682 4683 0
-4683 4737 0
-120 -4683 4684 0
-4684 4738 0
-121 -4684 4685 0
-4685 4739 0
-122 -4685 4686 0
-4686 4740 0
-123 -4686 4687 0
-4687 4741 0
-124 -4687 4688 0
-4688 4742 0
-125 -4688 4689 0
-4689 4743 0
-126 -4689 4690 0
-4690 4744 0
-127 -4690 4691 0
-4691 4745 0
-128 -4691 4692 0
-4692 4746 0
-129 -4692 4693 0
-4693 4747 0
-130 -4693 4694 0
-4694 4748 0
-131 -4694 4695 0
-4695 4749 0
-132 -4695 4696 0
-4696 4750 0
-133 -4696 4697 0
-4697 4751 0
-134 -4697 0
-81 4698 0
-4698 4752 0
-82 -4698 4699 0
-4699 4753 0
-83 -4699 4700 0
-4700 4754 0
-84 -4700 4701 0
-4701 4755 0
-85 -4701 4702 0
-4702 4756 0
-86 -4702 4703 0
-4703 4757 0
-87 -4703 4704 0
-4704 4758 0
-88 -4704 4705 0
-4705 4759 0
-89 -4705 4706 0
-4706 4760 0
-90 -4706 4707 0
-4707 4761 0
-91 -4707 4708 0
-4708 4762 0
-92 -4708 4709 0
-4709 4763 0
-93 -4709 4710 0
-4710 4764 0
-94 -4710 4711 0
-4711 4765 0
-95 -4711 4712 0
-4712 4766 0
-96 -4712 4713 0
-4713 4767 0
-97 -4713 4714 0
-4714 4768 0
-98 -4714 4715 0
-4715 4769 0
-99 -4715 4716 0
-4716 4770 0
-100 -4716 4717 0
-4717 4771 0
-101 -4717 4718 0
-4718 4772 0
-102 -4718 4719 0
-4719 4773 0
-103 -4719 4720 0
-4720 4774 0
-104 -4720 4721 0
-4721 4775 0
-105 -4721 4722 0
-4722 4776 0
-106 -4722 4723 0
-4723 4777 0
-107 -4723 4724 0
-4724 4778 0
-108 -4724 4725 0
-4725 4779 0
-109 -4725 4726 0
-4726 4780 0
-110 -4726 4727 0
-4727 4781 0
-111 -4727 4728 0
-4728 4782 0
-112 -4728 4729 0
-4729 4783 0
-113 -4729 4730 0
-4730 4784 0
-114 -4730 4731 0
-4731 4785 0
-115 -4731 4732 0
-4732 4786 0
-116 -4732 4733 0
-4733 4787 0
-117 -4733 4734 0
-4734 4788 0
-118 -4734 4735 0
-4735 4789 0
-119 -4735 4736 0
-4736 4790 0
-120 -4736 4737 0
-4737 4791 0
-121 -4737 4738 0
-4738 4792 0
-122 -4738 4739 0
-4739 4793 0
-123 -4739 4740 0
-4740 4794 0
-124 -4740 4741 0
-4741 4795 0
-125 -4741 4742 0
-4742 4796 0
-126 -4742 4743 0
-4743 4797 0
-127 -4743 4744 0
-4744 4798 0
-128 -4744 4745 0
-4745 4799 0
-129 -4745 4746 0
-4746 4800 0
-130 -4746 4747 0
-4747 4801 0
-131 -4747 4748 0
-4748 4802 0
-132 -4748 4749 0
-4749 4803 0
-133 -4749 4750 0
-4750 4804 0
-134 -4750 4751 0
-4751 4805 0
-135 -4751 0
-82 4752 0
-4752 4806 0
-83 -4752 4753 0
-4753 4807 0
-84 -4753 4754 0
-4754 4808 0
-85 -4754 4755 0
-4755 4809 0
-86 -4755 4756 0
-4756 4810 0
-87 -4756 4757 0
-4757 4811 0
-88 -4757 4758 0
-4758 4812 0
-89 -4758 4759 0
-4759 4813 0
-90 -4759 4760 0
-4760 4814 0
-91 -4760 4761 0
-4761 4815 0
-92 -4761 4762 0
-4762 4816 0
-93 -4762 4763 0
-4763 4817 0
-94 -4763 4764 0
-4764 4818 0
-95 -4764 4765 0
-4765 4819 0
-96 -4765 4766 0
-4766 4820 0
-97 -4766 4767 0
-4767 4821 0
-98 -4767 4768 0
-4768 4822 0
-99 -4768 4769 0
-4769 4823 0
-100 -4769 4770 0
-4770 4824 0
-101 -4770 4771 0
-4771 4825 0
-102 -4771 4772 0
-4772 4826 0
-103 -4772 4773 0
-4773 4827 0
-104 -4773 4774 0
-4774 4828 0
-105 -4774 4775 0
-4775 4829 0
-106 -4775 4776 0
-4776 4830 0
-107 -4776 4777 0
-4777 4831 0
-108 -4777 4778 0
-4778 4832 0
-109 -4778 4779 0
-4779 4833 0
-110 -4779 4780 0
-4780 4834 0
-111 -4780 4781 0
-4781 4835 0
-112 -4781 4782 0
-4782 4836 0
-113 -4782 4783 0
-4783 4837 0
-114 -4783 4784 0
-4784 4838 0
-115 -4784 4785 0
-4785 4839 0
-116 -4785 4786 0
-4786 4840 0
-117 -4786 4787 0
-4787 4841 0
-118 -4787 4788 0
-4788 4842 0
-119 -4788 4789 0
-4789 4843 0
-120 -4789 4790 0
-4790 4844 0
-121 -4790 4791 0
-4791 4845 0
-122 -4791 4792 0
-4792 4846 0
-123 -4792 4793 0
-4793 4847 0
-124 -4793 4794 0
-4794 4848 0
-125 -4794 4795 0
-4795 4849 0
-126 -4795 4796 0
-4796 4850 0
-127 -4796 4797 0
-4797 4851 0
-128 -4797 4798 0
-4798 4852 0
-129 -4798 4799 0
-4799 4853 0
-130 -4799 4800 0
-4800 4854 0
-131 -4800 4801 0
-4801 4855 0
-132 -4801 4802 0
-4802 4856 0
-133 -4802 4803 0
-4803 4857 0
-134 -4803 4804 0
-4804 4858 0
-135 -4804 4805 0
-4805 4859 0
-136 -4805 0
-83 4806 0
-4806 4860 0
-84 -4806 4807 0
-4807 4861 0
-85 -4807 4808 0
-4808 4862 0
-86 -4808 4809 0
-4809 4863 0
-87 -4809 4810 0
-4810 4864 0
-88 -4810 4811 0
-4811 4865 0
-89 -4811 4812 0
-4812 4866 0
-90 -4812 4813 0
-4813 4867 0
-91 -4813 4814 0
-4814 4868 0
-92 -4814 4815 0
-4815 4869 0
-93 -4815 4816 0
-4816 4870 0
-94 -4816 4817 0
-4817 4871 0
-95 -4817 4818 0
-4818 4872 0
-96 -4818 4819 0
-4819 4873 0
-97 -4819 4820 0
-4820 4874 0
-98 -4820 4821 0
-4821 4875 0
-99 -4821 4822 0
-4822 4876 0
-100 -4822 4823 0
-4823 4877 0
-101 -4823 4824 0
-4824 4878 0
-102 -4824 4825 0
-4825 4879 0
-103 -4825 4826 0
-4826 4880 0
-104 -4826 4827 0
-4827 4881 0
-105 -4827 4828 0
-4828 4882 0
-106 -4828 4829 0
-4829 4883 0
-107 -4829 4830 0
-4830 4884 0
-108 -4830 4831 0
-4831 4885 0
-109 -4831 4832 0
-4832 4886 0
-110 -4832 4833 0
-4833 4887 0
-111 -4833 4834 0
-4834 4888 0
-112 -4834 4835 0
-4835 4889 0
-113 -4835 4836 0
-4836 4890 0
-114 -4836 4837 0
-4837 4891 0
-115 -4837 4838 0
-4838 4892 0
-116 -4838 4839 0
-4839 4893 0
-117 -4839 4840 0
-4840 4894 0
-118 -4840 4841 0
-4841 4895 0
-119 -4841 4842 0
-4842 4896 0
-120 -4842 4843 0
-4843 4897 0
-121 -4843 4844 0
-4844 4898 0
-122 -4844 4845 0
-4845 4899 0
-123 -4845 4846 0
-4846 4900 0
-124 -4846 4847 0
-4847 4901 0
-125 -4847 4848 0
-4848 4902 0
-126 -4848 4849 0
-4849 4903 0
-127 -4849 4850 0
-4850 4904 0
-128 -4850 4851 0
-4851 4905 0
-129 -4851 4852 0
-4852 4906 0
-130 -4852 4853 0
-4853 4907 0
-131 -4853 4854 0
-4854 4908 0
-132 -4854 4855 0
-4855 4909 0
-133 -4855 4856 0
-4856 4910 0
-134 -4856 4857 0
-4857 4911 0
-135 -4857 4858 0
-4858 4912 0
-136 -4858 4859 0
-4859 4913 0
-137 -4859 0
-84 4860 0
-4860 4914 0
-85 -4860 4861 0
-4861 4915 0
-86 -4861 4862 0
-4862 4916 0
-87 -4862 4863 0
-4863 4917 0
-88 -4863 4864 0
-4864 4918 0
-89 -4864 4865 0
-4865 4919 0
-90 -4865 4866 0
-4866 4920 0
-91 -4866 4867 0
-4867 4921 0
-92 -4867 4868 0
-4868 4922 0
-93 -4868 4869 0
-4869 4923 0
-94 -4869 4870 0
-4870 4924 0
-95 -4870 4871 0
-4871 4925 0
-96 -4871 4872 0
-4872 4926 0
-97 -4872 4873 0
-4873 4927 0
-98 -4873 4874 0
-4874 4928 0
-99 -4874 4875 0
-4875 4929 0
-100 -4875 4876 0
-4876 4930 0
-101 -4876 4877 0
-4877 4931 0
-102 -4877 4878 0
-4878 4932 0
-103 -4878 4879 0
-4879 4933 0
-104 -4879 4880 0
-4880 4934 0
-105 -4880 4881 0
-4881 4935 0
-106 -4881 4882 0
-4882 4936 0
-107 -4882 4883 0
-4883 4937 0
-108 -4883 4884 0
-4884 4938 0
-109 -4884 4885 0
-4885 4939 0
-110 -4885 4886 0
-4886 4940 0
-111 -4886 4887 0
-4887 4941 0
-112 -4887 4888 0
-4888 4942 0
-113 -4888 4889 0
-4889 4943 0
-114 -4889 4890 0
-4890 4944 0
-115 -4890 4891 0
-4891 4945 0
-116 -4891 4892 0
-4892 4946 0
-117 -4892 4893 0
-4893 4947 0
-118 -4893 4894 0
-4894 4948 0
-119 -4894 4895 0
-4895 4949 0
-120 -4895 4896 0
-4896 4950 0
-121 -4896 4897 0
-4897 4951 0
-122 -4897 4898 0
-4898 4952 0
-123 -4898 4899 0
-4899 4953 0
-124 -4899 4900 0
-4900 4954 0
-125 -4900 4901 0
-4901 4955 0
-126 -4901 4902 0
-4902 4956 0
-127 -4902 4903 0
-4903 4957 0
-128 -4903 4904 0
-4904 4958 0
-129 -4904 4905 0
-4905 4959 0
-130 -4905 4906 0
-4906 4960 0
-131 -4906 4907 0
-4907 4961 0
-132 -4907 4908 0
-4908 4962 0
-133 -4908 4909 0
-4909 4963 0
-134 -4909 4910 0
-4910 4964 0
-135 -4910 4911 0
-4911 4965 0
-136 -4911 4912 0
-4912 4966 0
-137 -4912 4913 0
-4913 4967 0
-138 -4913 0
-85 4914 0
-4914 4968 0
-86 -4914 4915 0
-4915 4969 0
-87 -4915 4916 0
-4916 4970 0
-88 -4916 4917 0
-4917 4971 0
-89 -4917 4918 0
-4918 4972 0
-90 -4918 4919 0
-4919 4973 0
-91 -4919 4920 0
-4920 4974 0
-92 -4920 4921 0
-4921 4975 0
-93 -4921 4922 0
-4922 4976 0
-94 -4922 4923 0
-4923 4977 0
-95 -4923 4924 0
-4924 4978 0
-96 -4924 4925 0
-4925 4979 0
-97 -4925 4926 0
-4926 4980 0
-98 -4926 4927 0
-4927 4981 0
-99 -4927 4928 0
-4928 4982 0
-100 -4928 4929 0
-4929 4983 0
-101 -4929 4930 0
-4930 4984 0
-102 -4930 4931 0
-4931 4985 0
-103 -4931 4932 0
-4932 4986 0
-104 -4932 4933 0
-4933 4987 0
-105 -4933 4934 0
-4934 4988 0
-106 -4934 4935 0
-4935 4989 0
-107 -4935 4936 0
-4936 4990 0
-108 -4936 4937 0
-4937 4991 0
-109 -4937 4938 0
-4938 4992 0
-110 -4938 4939 0
-4939 4993 0
-111 -4939 4940 0
-4940 4994 0
-112 -4940 4941 0
-4941 4995 0
-113 -4941 4942 0
-4942 4996 0
-114 -4942 4943 0
-4943 4997 0
-115 -4943 4944 0
-4944 4998 0
-116 -4944 4945 0
-4945 4999 0
-117 -4945 4946 0
-4946 5000 0
-118 -4946 4947 0
-4947 5001 0
-119 -4947 4948 0
-4948 5002 0
-120 -4948 4949 0
-4949 5003 0
-121 -4949 4950 0
-4950 5004 0
-122 -4950 4951 0
-4951 5005 0
-123 -4951 4952 0
-4952 5006 0
-124 -4952 4953 0
-4953 5007 0
-125 -4953 4954 0
-4954 5008 0
-126 -4954 4955 0
-4955 5009 0
-127 -4955 4956 0
-4956 5010 0
-128 -4956 4957 0
-4957 5011 0
-129 -4957 4958 0
-4958 5012 0
-130 -4958 4959 0
-4959 5013 0
-131 -4959 4960 0
-4960 5014 0
-132 -4960 4961 0
-4961 5015 0
-133 -4961 4962 0
-4962 5016 0
-134 -4962 4963 0
-4963 5017 0
-135 -4963 4964 0
-4964 5018 0
-136 -4964 4965 0
-4965 5019 0
-137 -4965 4966 0
-4966 5020 0
-138 -4966 4967 0
-4967 5021 0
-139 -4967 0
-86 4968 0
-4968 5022 0
-87 -4968 4969 0
-4969 5023 0
-88 -4969 4970 0
-4970 5024 0
-89 -4970 4971 0
-4971 5025 0
-90 -4971 4972 0
-4972 5026 0
-91 -4972 4973 0
-4973 5027 0
-92 -4973 4974 0
-4974 5028 0
-93 -4974 4975 0
-4975 5029 0
-94 -4975 4976 0
-4976 5030 0
-95 -4976 4977 0
-4977 5031 0
-96 -4977 4978 0
-4978 5032 0
-97 -4978 4979 0
-4979 5033 0
-98 -4979 4980 0
-4980 5034 0
-99 -4980 4981 0
-4981 5035 0
-100 -4981 4982 0
-4982 5036 0
-101 -4982 4983 0
-4983 5037 0
-102 -4983 4984 0
-4984 5038 0
-103 -4984 4985 0
-4985 5039 0
-104 -4985 4986 0
-4986 5040 0
-105 -4986 4987 0
-4987 5041 0
-106 -4987 4988 0
-4988 5042 0
-107 -4988 4989 0
-4989 5043 0
-108 -4989 4990 0
-4990 5044 0
-109 -4990 4991 0
-4991 5045 0
-110 -4991 4992 0
-4992 5046 0
-111 -4992 4993 0
-4993 5047 0
-112 -4993 4994 0
-4994 5048 0
-113 -4994 4995 0
-4995 5049 0
-114 -4995 4996 0
-4996 5050 0
-115 -4996 4997 0
-4997 5051 0
-116 -4997 4998 0
-4998 5052 0
-117 -4998 4999 0
-4999 5053 0
-118 -4999 5000 0
-5000 5054 0
-119 -5000 5001 0
-5001 5055 0
-120 -5001 5002 0
-5002 5056 0
-121 -5002 5003 0
-5003 5057 0
-122 -5003 5004 0
-5004 5058 0
-123 -5004 5005 0
-5005 5059 0
-124 -5005 5006 0
-5006 5060 0
-125 -5006 5007 0
-5007 5061 0
-126 -5007 5008 0
-5008 5062 0
-127 -5008 5009 0
-5009 5063 0
-128 -5009 5010 0
-5010 5064 0
-129 -5010 5011 0
-5011 5065 0
-130 -5011 5012 0
-5012 5066 0
-131 -5012 5013 0
-5013 5067 0
-132 -5013 5014 0
-5014 5068 0
-133 -5014 5015 0
-5015 5069 0
-134 -5015 5016 0
-5016 5070 0
-135 -5016 5017 0
-5017 5071 0
-136 -5017 5018 0
-5018 5072 0
-137 -5018 5019 0
-5019 5073 0
-138 -5019 5020 0
-5020 5074 0
-139 -5020 5021 0
-5021 5075 0
-140 -5021 0
-87 5022 0
-5022 5076 0
-88 -5022 5023 0
-5023 5077 0
-89 -5023 5024 0
-5024 5078 0
-90 -5024 5025 0
-5025 5079 0
-91 -5025 5026 0
-5026 5080 0
-92 -5026 5027 0
-5027 5081 0
-93 -5027 5028 0
-5028 5082 0
-94 -5028 5029 0
-5029 5083 0
-95 -5029 5030 0
-5030 5084 0
-96 -5030 5031 0
-5031 5085 0
-97 -5031 5032 0
-5032 5086 0
-98 -5032 5033 0
-5033 5087 0
-99 -5033 5034 0
-5034 5088 0
-100 -5034 5035 0
-5035 5089 0
-101 -5035 5036 0
-5036 5090 0
-102 -5036 5037 0
-5037 5091 0
-103 -5037 5038 0
-5038 5092 0
-104 -5038 5039 0
-5039 5093 0
-105 -5039 5040 0
-5040 5094 0
-106 -5040 5041 0
-5041 5095 0
-107 -5041 5042 0
-5042 5096 0
-108 -5042 5043 0
-5043 5097 0
-109 -5043 5044 0
-5044 5098 0
-110 -5044 5045 0
-5045 5099 0
-111 -5045 5046 0
-5046 5100 0
-112 -5046 5047 0
-5047 5101 0
-113 -5047 5048 0
-5048 5102 0
-114 -5048 5049 0
-5049 5103 0
-115 -5049 5050 0
-5050 5104 0
-116 -5050 5051 0
-5051 5105 0
-117 -5051 5052 0
-5052 5106 0
-118 -5052 5053 0
-5053 5107 0
-119 -5053 5054 0
-5054 5108 0
-120 -5054 5055 0
-5055 5109 0
-121 -5055 5056 0
-5056 5110 0
-122 -5056 5057 0
-5057 5111 0
-123 -5057 5058 0
-5058 5112 0
-124 -5058 5059 0
-5059 5113 0
-125 -5059 5060 0
-5060 5114 0
-126 -5060 5061 0
-5061 5115 0
-127 -5061 5062 0
-5062 5116 0
-128 -5062 5063 0
-5063 5117 0
-129 -5063 5064 0
-5064 5118 0
-130 -5064 5065 0
-5065 5119 0
-131 -5065 5066 0
-5066 5120 0
-132 -5066 5067 0
-5067 5121 0
-133 -5067 5068 0
-5068 5122 0
-134 -5068 5069 0
-5069 5123 0
-135 -5069 5070 0
-5070 5124 0
-136 -5070 5071 0
-5071 5125 0
-137 -5071 5072 0
-5072 5126 0
-138 -5072 5073 0
-5073 5127 0
-139 -5073 5074 0
-5074 5128 0
-140 -5074 5075 0
-5075 5129 0
-141 -5075 0
-88 5076 0
-5076 5130 0
-89 -5076 5077 0
-5077 5131 0
-90 -5077 5078 0
-5078 5132 0
-91 -5078 5079 0
-5079 5133 0
-92 -5079 5080 0
-5080 5134 0
-93 -5080 5081 0
-5081 5135 0
-94 -5081 5082 0
-5082 5136 0
-95 -5082 5083 0
-5083 5137 0
-96 -5083 5084 0
-5084 5138 0
-97 -5084 5085 0
-5085 5139 0
-98 -5085 5086 0
-5086 5140 0
-99 -5086 5087 0
-5087 5141 0
-100 -5087 5088 0
-5088 5142 0
-101 -5088 5089 0
-5089 5143 0
-102 -5089 5090 0
-5090 5144 0
-103 -5090 5091 0
-5091 5145 0
-104 -5091 5092 0
-5092 5146 0
-105 -5092 5093 0
-5093 5147 0
-106 -5093 5094 0
-5094 5148 0
-107 -5094 5095 0
-5095 5149 0
-108 -5095 5096 0
-5096 5150 0
-109 -5096 5097 0
-5097 5151 0
-110 -5097 5098 0
-5098 5152 0
-111 -5098 5099 0
-5099 5153 0
-112 -5099 5100 0
-5100 5154 0
-113 -5100 5101 0
-5101 5155 0
-114 -5101 5102 0
-5102 5156 0
-115 -5102 5103 0
-5103 5157 0
-116 -5103 5104 0
-5104 5158 0
-117 -5104 5105 0
-5105 5159 0
-118 -5105 5106 0
-5106 5160 0
-119 -5106 5107 0
-5107 5161 0
-120 -5107 5108 0
-5108 5162 0
-121 -5108 5109 0
-5109 5163 0
-122 -5109 5110 0
-5110 5164 0
-123 -5110 5111 0
-5111 5165 0
-124 -5111 5112 0
-5112 5166 0
-125 -5112 5113 0
-5113 5167 0
-126 -5113 5114 0
-5114 5168 0
-127 -5114 5115 0
-5115 5169 0
-128 -5115 5116 0
-5116 5170 0
-129 -5116 5117 0
-5117 5171 0
-130 -5117 5118 0
-5118 5172 0
-131 -5118 5119 0
-5119 5173 0
-132 -5119 5120 0
-5120 5174 0
-133 -5120 5121 0
-5121 5175 0
-134 -5121 5122 0
-5122 5176 0
-135 -5122 5123 0
-5123 5177 0
-136 -5123 5124 0
-5124 5178 0
-137 -5124 5125 0
-5125 5179 0
-138 -5125 5126 0
-5126 5180 0
-139 -5126 5127 0
-5127 5181 0
-140 -5127 5128 0
-5128 5182 0
-141 -5128 5129 0
-5129 5183 0
-142 -5129 0
-89 5130 0
-5130 5184 0
-90 -5130 5131 0
-5131 5185 0
-91 -5131 5132 0
-5132 5186 0
-92 -5132 5133 0
-5133 5187 0
-93 -5133 5134 0
-5134 5188 0
-94 -5134 5135 0
-5135 5189 0
-95 -5135 5136 0
-5136 5190 0
-96 -5136 5137 0
-5137 5191 0
-97 -5137 5138 0
-5138 5192 0
-98 -5138 5139 0
-5139 5193 0
-99 -5139 5140 0
-5140 5194 0
-100 -5140 5141 0
-5141 5195 0
-101 -5141 5142 0
-5142 5196 0
-102 -5142 5143 0
-5143 5197 0
-103 -5143 5144 0
-5144 5198 0
-104 -5144 5145 0
-5145 5199 0
-105 -5145 5146 0
-5146 5200 0
-106 -5146 5147 0
-5147 5201 0
-107 -5147 5148 0
-5148 5202 0
-108 -5148 5149 0
-5149 5203 0
-109 -5149 5150 0
-5150 5204 0
-110 -5150 5151 0
-5151 5205 0
-111 -5151 5152 0
-5152 5206 0
-112 -5152 5153 0
-5153 5207 0
-113 -5153 5154 0
-5154 5208 0
-114 -5154 5155 0
-5155 5209 0
-115 -5155 5156 0
-5156 5210 0
-116 -5156 5157 0
-5157 5211 0
-117 -5157 5158 0
-5158 5212 0
-118 -5158 5159 0
-5159 5213 0
-119 -5159 5160 0
-5160 5214 0
-120 -5160 5161 0
-5161 5215 0
-121 -5161 5162 0
-5162 5216 0
-122 -5162 5163 0
-5163 5217 0
-123 -5163 5164 0
-5164 5218 0
-124 -5164 5165 0
-5165 5219 0
-125 -5165 5166 0
-5166 5220 0
-126 -5166 5167 0
-5167 5221 0
-127 -5167 5168 0
-5168 5222 0
-128 -5168 5169 0
-5169 5223 0
-129 -5169 5170 0
-5170 5224 0
-130 -5170 5171 0
-5171 5225 0
-131 -5171 5172 0
-5172 5226 0
-132 -5172 5173 0
-5173 5227 0
-133 -5173 5174 0
-5174 5228 0
-134 -5174 5175 0
-5175 5229 0
-135 -5175 5176 0
-5176 5230 0
-136 -5176 5177 0
-5177 5231 0
-137 -5177 5178 0
-5178 5232 0
-138 -5178 5179 0
-5179 5233 0
-139 -5179 5180 0
-5180 5234 0
-140 -5180 5181 0
-5181 5235 0
-141 -5181 5182 0
-5182 5236 0
-142 -5182 5183 0
-5183 5237 0
-143 -5183 0
-90 5184 0
-5184 5238 0
-91 -5184 5185 0
-5185 5239 0
-92 -5185 5186 0
-5186 5240 0
-93 -5186 5187 0
-5187 5241 0
-94 -5187 5188 0
-5188 5242 0
-95 -5188 5189 0
-5189 5243 0
-96 -5189 5190 0
-5190 5244 0
-97 -5190 5191 0
-5191 5245 0
-98 -5191 5192 0
-5192 5246 0
-99 -5192 5193 0
-5193 5247 0
-100 -5193 5194 0
-5194 5248 0
-101 -5194 5195 0
-5195 5249 0
-102 -5195 5196 0
-5196 5250 0
-103 -5196 5197 0
-5197 5251 0
-104 -5197 5198 0
-5198 5252 0
-105 -5198 5199 0
-5199 5253 0
-106 -5199 5200 0
-5200 5254 0
-107 -5200 5201 0
-5201 5255 0
-108 -5201 5202 0
-5202 5256 0
-109 -5202 5203 0
-5203 5257 0
-110 -5203 5204 0
-5204 5258 0
-111 -5204 5205 0
-5205 5259 0
-112 -5205 5206 0
-5206 5260 0
-113 -5206 5207 0
-5207 5261 0
-114 -5207 5208 0
-5208 5262 0
-115 -5208 5209 0
-5209 5263 0
-116 -5209 5210 0
-5210 5264 0
-117 -5210 5211 0
-5211 5265 0
-118 -5211 5212 0
-5212 5266 0
-119 -5212 5213 0
-5213 5267 0
-120 -5213 5214 0
-5214 5268 0
-121 -5214 5215 0
-5215 5269 0
-122 -5215 5216 0
-5216 5270 0
-123 -5216 5217 0
-5217 5271 0
-124 -5217 5218 0
-5218 5272 0
-125 -5218 5219 0
-5219 5273 0
-126 -5219 5220 0
-5220 5274 0
-127 -5220 5221 0
-5221 5275 0
-128 -5221 5222 0
-5222 5276 0
-129 -5222 5223 0
-5223 5277 0
-130 -5223 5224 0
-5224 5278 0
-131 -5224 5225 0
-5225 5279 0
-132 -5225 5226 0
-5226 5280 0
-133 -5226 5227 0
-5227 5281 0
-134 -5227 5228 0
-5228 5282 0
-135 -5228 5229 0
-5229 5283 0
-136 -5229 5230 0
-5230 5284 0
-137 -5230 5231 0
-5231 5285 0
-138 -5231 5232 0
-5232 5286 0
-139 -5232 5233 0
-5233 5287 0
-140 -5233 5234 0
-5234 5288 0
-141 -5234 5235 0
-5235 5289 0
-142 -5235 5236 0
-5236 5290 0
-143 -5236 5237 0
-5237 5291 0
-144 -5237 0
-91 5238 0
-5238 5292 0
-92 -5238 5239 0
-5239 5293 0
-93 -5239 5240 0
-5240 5294 0
-94 -5240 5241 0
-5241 5295 0
-95 -5241 5242 0
-5242 5296 0
-96 -5242 5243 0
-5243 5297 0
-97 -5243 5244 0
-5244 5298 0
-98 -5244 5245 0
-5245 5299 0
-99 -5245 5246 0
-5246 5300 0
-100 -5246 5247 0
-5247 5301 0
-101 -5247 5248 0
-5248 5302 0
-102 -5248 5249 0
-5249 5303 0
-103 -5249 5250 0
-5250 5304 0
-104 -5250 5251 0
-5251 5305 0
-105 -5251 5252 0
-5252 5306 0
-106 -5252 5253 0
-5253 5307 0
-107 -5253 5254 0
-5254 5308 0
-108 -5254 5255 0
-5255 5309 0
-109 -5255 5256 0
-5256 5310 0
-110 -5256 5257 0
-5257 5311 0
-111 -5257 5258 0
-5258 5312 0
-112 -5258 5259 0
-5259 5313 0
-113 -5259 5260 0
-5260 5314 0
-114 -5260 5261 0
-5261 5315 0
-115 -5261 5262 0
-5262 5316 0
-116 -5262 5263 0
-5263 5317 0
-117 -5263 5264 0
-5264 5318 0
-118 -5264 5265 0
-5265 5319 0
-119 -5265 5266 0
-5266 5320 0
-120 -5266 5267 0
-5267 5321 0
-121 -5267 5268 0
-5268 5322 0
-122 -5268 5269 0
-5269 5323 0
-123 -5269 5270 0
-5270 5324 0
-124 -5270 5271 0
-5271 5325 0
-125 -5271 5272 0
-5272 5326 0
-126 -5272 5273 0
-5273 5327 0
-127 -5273 5274 0
-5274 5328 0
-128 -5274 5275 0
-5275 5329 0
-129 -5275 5276 0
-5276 5330 0
-130 -5276 5277 0
-5277 5331 0
-131 -5277 5278 0
-5278 5332 0
-132 -5278 5279 0
-5279 5333 0
-133 -5279 5280 0
-5280 5334 0
-134 -5280 5281 0
-5281 5335 0
-135 -5281 5282 0
-5282 5336 0
-136 -5282 5283 0
-5283 5337 0
-137 -5283 5284 0
-5284 5338 0
-138 -5284 5285 0
-5285 5339 0
-139 -5285 5286 0
-5286 5340 0
-140 -5286 5287 0
-5287 5341 0
-141 -5287 5288 0
-5288 5342 0
-142 -5288 5289 0
-5289 5343 0
-143 -5289 5290 0
-5290 5344 0
-144 -5290 5291 0
-5291 5345 0
-145 -5291 0
-92 5292 0
-5292 5346 0
-93 -5292 5293 0
-5293 5347 0
-94 -5293 5294 0
-5294 5348 0
-95 -5294 5295 0
-5295 5349 0
-96 -5295 5296 0
-5296 5350 0
-97 -5296 5297 0
-5297 5351 0
-98 -5297 5298 0
-5298 5352 0
-99 -5298 5299 0
-5299 5353 0
-100 -5299 5300 0
-5300 5354 0
-101 -5300 5301 0
-5301 5355 0
-102 -5301 5302 0
-5302 5356 0
-103 -5302 5303 0
-5303 5357 0
-104 -5303 5304 0
-5304 5358 0
-105 -5304 5305 0
-5305 5359 0
-106 -5305 5306 0
-5306 5360 0
-107 -5306 5307 0
-5307 5361 0
-108 -5307 5308 0
-5308 5362 0
-109 -5308 5309 0
-5309 5363 0
-110 -5309 5310 0
-5310 5364 0
-111 -5310 5311 0
-5311 5365 0
-112 -5311 5312 0
-5312 5366 0
-113 -5312 5313 0
-5313 5367 0
-114 -5313 5314 0
-5314 5368 0
-115 -5314 5315 0
-5315 5369 0
-116 -5315 5316 0
-5316 5370 0
-117 -5316 5317 0
-5317 5371 0
-118 -5317 5318 0
-5318 5372 0
-119 -5318 5319 0
-5319 5373 0
-120 -5319 5320 0
-5320 5374 0
-121 -5320 5321 0
-5321 5375 0
-122 -5321 5322 0
-5322 5376 0
-123 -5322 5323 0
-5323 5377 0
-124 -5323 5324 0
-5324 5378 0
-125 -5324 5325 0
-5325 5379 0
-126 -5325 5326 0
-5326 5380 0
-127 -5326 5327 0
-5327 5381 0
-128 -5327 5328 0
-5328 5382 0
-129 -5328 5329 0
-5329 5383 0
-130 -5329 5330 0
-5330 5384 0
-131 -5330 5331 0
-5331 5385 0
-132 -5331 5332 0
-5332 5386 0
-133 -5332 5333 0
-5333 5387 0
-134 -5333 5334 0
-5334 5388 0
-135 -5334 5335 0
-5335 5389 0
-136 -5335 5336 0
-5336 5390 0
-137 -5336 5337 0
-5337 5391 0
-138 -5337 5338 0
-5338 5392 0
-139 -5338 5339 0
-5339 5393 0
-140 -5339 5340 0
-5340 5394 0
-141 -5340 5341 0
-5341 5395 0
-142 -5341 5342 0
-5342 5396 0
-143 -5342 5343 0
-5343 5397 0
-144 -5343 5344 0
-5344 5398 0
-145 -5344 5345 0
-5345 5399 0
-146 -5345 0
-93 5346 0
-5346 5400 0
-94 -5346 5347 0
-5347 5401 0
-95 -5347 5348 0
-5348 5402 0
-96 -5348 5349 0
-5349 5403 0
-97 -5349 5350 0
-5350 5404 0
-98 -5350 5351 0
-5351 5405 0
-99 -5351 5352 0
-5352 5406 0
-100 -5352 5353 0
-5353 5407 0
-101 -5353 5354 0
-5354 5408 0
-102 -5354 5355 0
-5355 5409 0
-103 -5355 5356 0
-5356 5410 0
-104 -5356 5357 0
-5357 5411 0
-105 -5357 5358 0
-5358 5412 0
-106 -5358 5359 0
-5359 5413 0
-107 -5359 5360 0
-5360 5414 0
-108 -5360 5361 0
-5361 5415 0
-109 -5361 5362 0
-5362 5416 0
-110 -5362 5363 0
-5363 5417 0
-111 -5363 5364 0
-5364 5418 0
-112 -5364 5365 0
-5365 5419 0
-113 -5365 5366 0
-5366 5420 0
-114 -5366 5367 0
-5367 5421 0
-115 -5367 5368 0
-5368 5422 0
-116 -5368 5369 0
-5369 5423 0
-117 -5369 5370 0
-5370 5424 0
-118 -5370 5371 0
-5371 5425 0
-119 -5371 5372 0
-5372 5426 0
-120 -5372 5373 0
-5373 5427 0
-121 -5373 5374 0
-5374 5428 0
-122 -5374 5375 0
-5375 5429 0
-123 -5375 5376 0
-5376 5430 0
-124 -5376 5377 0
-5377 5431 0
-125 -5377 5378 0
-5378 5432 0
-126 -5378 5379 0
-5379 5433 0
-127 -5379 5380 0
-5380 5434 0
-128 -5380 5381 0
-5381 5435 0
-129 -5381 5382 0
-5382 5436 0
-130 -5382 5383 0
-5383 5437 0
-131 -5383 5384 0
-5384 5438 0
-132 -5384 5385 0
-5385 5439 0
-133 -5385 5386 0
-5386 5440 0
-134 -5386 5387 0
-5387 5441 0
-135 -5387 5388 0
-5388 5442 0
-136 -5388 5389 0
-5389 5443 0
-137 -5389 5390 0
-5390 5444 0
-138 -5390 5391 0
-5391 5445 0
-139 -5391 5392 0
-5392 5446 0
-140 -5392 5393 0
-5393 5447 0
-141 -5393 5394 0
-5394 5448 0
-142 -5394 5395 0
-5395 5449 0
-143 -5395 5396 0
-5396 5450 0
-144 -5396 5397 0
-5397 5451 0
-145 -5397 5398 0
-5398 5452 0
-146 -5398 5399 0
-5399 5453 0
-147 -5399 0
-94 5400 0
-5400 5454 0
-95 -5400 5401 0
-5401 5455 0
-96 -5401 5402 0
-5402 5456 0
-97 -5402 5403 0
-5403 5457 0
-98 -5403 5404 0
-5404 5458 0
-99 -5404 5405 0
-5405 5459 0
-100 -5405 5406 0
-5406 5460 0
-101 -5406 5407 0
-5407 5461 0
-102 -5407 5408 0
-5408 5462 0
-103 -5408 5409 0
-5409 5463 0
-104 -5409 5410 0
-5410 5464 0
-105 -5410 5411 0
-5411 5465 0
-106 -5411 5412 0
-5412 5466 0
-107 -5412 5413 0
-5413 5467 0
-108 -5413 5414 0
-5414 5468 0
-109 -5414 5415 0
-5415 5469 0
-110 -5415 5416 0
-5416 5470 0
-111 -5416 5417 0
-5417 5471 0
-112 -5417 5418 0
-5418 5472 0
-113 -5418 5419 0
-5419 5473 0
-114 -5419 5420 0
-5420 5474 0
-115 -5420 5421 0
-5421 5475 0
-116 -5421 5422 0
-5422 5476 0
-117 -5422 5423 0
-5423 5477 0
-118 -5423 5424 0
-5424 5478 0
-119 -5424 5425 0
-5425 5479 0
-120 -5425 5426 0
-5426 5480 0
-121 -5426 5427 0
-5427 5481 0
-122 -5427 5428 0
-5428 5482 0
-123 -5428 5429 0
-5429 5483 0
-124 -5429 5430 0
-5430 5484 0
-125 -5430 5431 0
-5431 5485 0
-126 -5431 5432 0
-5432 5486 0
-127 -5432 5433 0
-5433 5487 0
-128 -5433 5434 0
-5434 5488 0
-129 -5434 5435 0
-5435 5489 0
-130 -5435 5436 0
-5436 5490 0
-131 -5436 5437 0
-5437 5491 0
-132 -5437 5438 0
-5438 5492 0
-133 -5438 5439 0
-5439 5493 0
-134 -5439 5440 0
-5440 5494 0
-135 -5440 5441 0
-5441 5495 0
-136 -5441 5442 0
-5442 5496 0
-137 -5442 5443 0
-5443 5497 0
-138 -5443 5444 0
-5444 5498 0
-139 -5444 5445 0
-5445 5499 0
-140 -5445 5446 0
-5446 5500 0
-141 -5446 5447 0
-5447 5501 0
-142 -5447 5448 0
-5448 5502 0
-143 -5448 5449 0
-5449 5503 0
-144 -5449 5450 0
-5450 5504 0
-145 -5450 5451 0
-5451 5505 0
-146 -5451 5452 0
-5452 5506 0
-147 -5452 5453 0
-5453 5507 0
-148 -5453 0
-95 5454 0
-5454 5508 0
-96 -5454 5455 0
-5455 5509 0
-97 -5455 5456 0
-5456 5510 0
-98 -5456 5457 0
-5457 5511 0
-99 -5457 5458 0
-5458 5512 0
-100 -5458 5459 0
-5459 5513 0
-101 -5459 5460 0
-5460 5514 0
-102 -5460 5461 0
-5461 5515 0
-103 -5461 5462 0
-5462 5516 0
-104 -5462 5463 0
-5463 5517 0
-105 -5463 5464 0
-5464 5518 0
-106 -5464 5465 0
-5465 5519 0
-107 -5465 5466 0
-5466 5520 0
-108 -5466 5467 0
-5467 5521 0
-109 -5467 5468 0
-5468 5522 0
-110 -5468 5469 0
-5469 5523 0
-111 -5469 5470 0
-5470 5524 0
-112 -5470 5471 0
-5471 5525 0
-113 -5471 5472 0
-5472 5526 0
-114 -5472 5473 0
-5473 5527 0
-115 -5473 5474 0
-5474 5528 0
-116 -5474 5475 0
-5475 5529 0
-117 -5475 5476 0
-5476 5530 0
-118 -5476 5477 0
-5477 5531 0
-119 -5477 5478 0
-5478 5532 0
-120 -5478 5479 0
-5479 5533 0
-121 -5479 5480 0
-5480 5534 0
-122 -5480 5481 0
-5481 5535 0
-123 -5481 5482 0
-5482 5536 0
-124 -5482 5483 0
-5483 5537 0
-125 -5483 5484 0
-5484 5538 0
-126 -5484 5485 0
-5485 5539 0
-127 -5485 5486 0
-5486 5540 0
-128 -5486 5487 0
-5487 5541 0
-129 -5487 5488 0
-5488 5542 0
-130 -5488 5489 0
-5489 5543 0
-131 -5489 5490 0
-5490 5544 0
-132 -5490 5491 0
-5491 5545 0
-133 -5491 5492 0
-5492 5546 0
-134 -5492 5493 0
-5493 5547 0
-135 -5493 5494 0
-5494 5548 0
-136 -5494 5495 0
-5495 5549 0
-137 -5495 5496 0
-5496 5550 0
-138 -5496 5497 0
-5497 5551 0
-139 -5497 5498 0
-5498 5552 0
-140 -5498 5499 0
-5499 5553 0
-141 -5499 5500 0
-5500 5554 0
-142 -5500 5501 0
-5501 5555 0
-143 -5501 5502 0
-5502 5556 0
-144 -5502 5503 0
-5503 5557 0
-145 -5503 5504 0
-5504 5558 0
-146 -5504 5505 0
-5505 5559 0
-147 -5505 5506 0
-5506 5560 0
-148 -5506 5507 0
-5507 5561 0
-149 -5507 0
-96 5508 0
-5508 5562 0
-97 -5508 5509 0
-5509 5563 0
-98 -5509 5510 0
-5510 5564 0
-99 -5510 5511 0
-5511 5565 0
-100 -5511 5512 0
-5512 5566 0
-101 -5512 5513 0
-5513 5567 0
-102 -5513 5514 0
-5514 5568 0
-103 -5514 5515 0
-5515 5569 0
-104 -5515 5516 0
-5516 5570 0
-105 -5516 5517 0
-5517 5571 0
-106 -5517 5518 0
-5518 5572 0
-107 -5518 5519 0
-5519 5573 0
-108 -5519 5520 0
-5520 5574 0
-109 -5520 5521 0
-5521 5575 0
-110 -5521 5522 0
-5522 5576 0
-111 -5522 5523 0
-5523 5577 0
-112 -5523 5524 0
-5524 5578 0
-113 -5524 5525 0
-5525 5579 0
-114 -5525 5526 0
-5526 5580 0
-115 -5526 5527 0
-5527 5581 0
-116 -5527 5528 0
-5528 5582 0
-117 -5528 5529 0
-5529 5583 0
-118 -5529 5530 0
-5530 5584 0
-119 -5530 5531 0
-5531 5585 0
-120 -5531 5532 0
-5532 5586 0
-121 -5532 5533 0
-5533 5587 0
-122 -5533 5534 0
-5534 5588 0
-123 -5534 5535 0
-5535 5589 0
-124 -5535 5536 0
-5536 5590 0
-125 -5536 5537 0
-5537 5591 0
-126 -5537 5538 0
-5538 5592 0
-127 -5538 5539 0
-5539 5593 0
-128 -5539 5540 0
-5540 5594 0
-129 -5540 5541 0
-5541 5595 0
-130 -5541 5542 0
-5542 5596 0
-131 -5542 5543 0
-5543 5597 0
-132 -5543 5544 0
-5544 5598 0
-133 -5544 5545 0
-5545 5599 0
-134 -5545 5546 0
-5546 5600 0
-135 -5546 5547 0
-5547 5601 0
-136 -5547 5548 0
-5548 5602 0
-137 -5548 5549 0
-5549 5603 0
-138 -5549 5550 0
-5550 5604 0
-139 -5550 5551 0
-5551 5605 0
-140 -5551 5552 0
-5552 5606 0
-141 -5552 5553 0
-5553 5607 0
-142 -5553 5554 0
-5554 5608 0
-143 -5554 5555 0
-5555 5609 0
-144 -5555 5556 0
-5556 5610 0
-145 -5556 5557 0
-5557 5611 0
-146 -5557 5558 0
-5558 5612 0
-147 -5558 5559 0
-5559 5613 0
-148 -5559 5560 0
-5560 5614 0
-149 -5560 5561 0
-5561 5615 0
-150 -5561 0
-97 5562 0
-5562 5616 0
-98 -5562 5563 0
-5563 5617 0
-99 -5563 5564 0
-5564 5618 0
-100 -5564 5565 0
-5565 5619 0
-101 -5565 5566 0
-5566 5620 0
-102 -5566 5567 0
-5567 5621 0
-103 -5567 5568 0
-5568 5622 0
-104 -5568 5569 0
-5569 5623 0
-105 -5569 5570 0
-5570 5624 0
-106 -5570 5571 0
-5571 5625 0
-107 -5571 5572 0
-5572 5626 0
-108 -5572 5573 0
-5573 5627 0
-109 -5573 5574 0
-5574 5628 0
-110 -5574 5575 0
-5575 5629 0
-111 -5575 5576 0
-5576 5630 0
-112 -5576 5577 0
-5577 5631 0
-113 -5577 5578 0
-5578 5632 0
-114 -5578 5579 0
-5579 5633 0
-115 -5579 5580 0
-5580 5634 0
-116 -5580 5581 0
-5581 5635 0
-117 -5581 5582 0
-5582 5636 0
-118 -5582 5583 0
-5583 5637 0
-119 -5583 5584 0
-5584 5638 0
-120 -5584 5585 0
-5585 5639 0
-121 -5585 5586 0
-5586 5640 0
-122 -5586 5587 0
-5587 5641 0
-123 -5587 5588 0
-5588 5642 0
-124 -5588 5589 0
-5589 5643 0
-125 -5589 5590 0
-5590 5644 0
-126 -5590 5591 0
-5591 5645 0
-127 -5591 5592 0
-5592 5646 0
-128 -5592 5593 0
-5593 5647 0
-129 -5593 5594 0
-5594 5648 0
-130 -5594 5595 0
-5595 5649 0
-131 -5595 5596 0
-5596 5650 0
-132 -5596 5597 0
-5597 5651 0
-133 -5597 5598 0
-5598 5652 0
-134 -5598 5599 0
-5599 5653 0
-135 -5599 5600 0
-5600 5654 0
-136 -5600 5601 0
-5601 5655 0
-137 -5601 5602 0
-5602 5656 0
-138 -5602 5603 0
-5603 5657 0
-139 -5603 5604 0
-5604 5658 0
-140 -5604 5605 0
-5605 5659 0
-141 -5605 5606 0
-5606 5660 0
-142 -5606 5607 0
-5607 5661 0
-143 -5607 5608 0
-5608 5662 0
-144 -5608 5609 0
-5609 5663 0
-145 -5609 5610 0
-5610 5664 0
-146 -5610 5611 0
-5611 5665 0
-147 -5611 5612 0
-5612 5666 0
-148 -5612 5613 0
-5613 5667 0
-149 -5613 5614 0
-5614 5668 0
-150 -5614 5615 0
-5615 5669 0
-151 -5615 0
-98 5616 0
-5616 5670 0
-99 -5616 5617 0
-5617 5671 0
-100 -5617 5618 0
-5618 5672 0
-101 -5618 5619 0
-5619 5673 0
-102 -5619 5620 0
-5620 5674 0
-103 -5620 5621 0
-5621 5675 0
-104 -5621 5622 0
-5622 5676 0
-105 -5622 5623 0
-5623 5677 0
-106 -5623 5624 0
-5624 5678 0
-107 -5624 5625 0
-5625 5679 0
-108 -5625 5626 0
-5626 5680 0
-109 -5626 5627 0
-5627 5681 0
-110 -5627 5628 0
-5628 5682 0
-111 -5628 5629 0
-5629 5683 0
-112 -5629 5630 0
-5630 5684 0
-113 -5630 5631 0
-5631 5685 0
-114 -5631 5632 0
-5632 5686 0
-115 -5632 5633 0
-5633 5687 0
-116 -5633 5634 0
-5634 5688 0
-117 -5634 5635 0
-5635 5689 0
-118 -5635 5636 0
-5636 5690 0
-119 -5636 5637 0
-5637 5691 0
-120 -5637 5638 0
-5638 5692 0
-121 -5638 5639 0
-5639 5693 0
-122 -5639 5640 0
-5640 5694 0
-123 -5640 5641 0
-5641 5695 0
-124 -5641 5642 0
-5642 5696 0
-125 -5642 5643 0
-5643 5697 0
-126 -5643 5644 0
-5644 5698 0
-127 -5644 5645 0
-5645 5699 0
-128 -5645 5646 0
-5646 5700 0
-129 -5646 5647 0
-5647 5701 0
-130 -5647 5648 0
-5648 5702 0
-131 -5648 5649 0
-5649 5703 0
-132 -5649 5650 0
-5650 5704 0
-133 -5650 5651 0
-5651 5705 0
-134 -5651 5652 0
-5652 5706 0
-135 -5652 5653 0
-5653 5707 0
-136 -5653 5654 0
-5654 5708 0
-137 -5654 5655 0
-5655 5709 0
-138 -5655 5656 0
-5656 5710 0
-139 -5656 5657 0
-5657 5711 0
-140 -5657 5658 0
-5658 5712 0
-141 -5658 5659 0
-5659 5713 0
-142 -5659 5660 0
-5660 5714 0
-143 -5660 5661 0
-5661 5715 0
-144 -5661 5662 0
-5662 5716 0
-145 -5662 5663 0
-5663 5717 0
-146 -5663 5664 0
-5664 5718 0
-147 -5664 5665 0
-5665 5719 0
-148 -5665 5666 0
-5666 5720 0
-149 -5666 5667 0
-5667 5721 0
-150 -5667 5668 0
-5668 5722 0
-151 -5668 5669 0
-5669 5723 0
-152 -5669 0
-99 5670 0
-5670 5724 0
-100 -5670 5671 0
-5671 5725 0
-101 -5671 5672 0
-5672 5726 0
-102 -5672 5673 0
-5673 5727 0
-103 -5673 5674 0
-5674 5728 0
-104 -5674 5675 0
-5675 5729 0
-105 -5675 5676 0
-5676 5730 0
-106 -5676 5677 0
-5677 5731 0
-107 -5677 5678 0
-5678 5732 0
-108 -5678 5679 0
-5679 5733 0
-109 -5679 5680 0
-5680 5734 0
-110 -5680 5681 0
-5681 5735 0
-111 -5681 5682 0
-5682 5736 0
-112 -5682 5683 0
-5683 5737 0
-113 -5683 5684 0
-5684 5738 0
-114 -5684 5685 0
-5685 5739 0
-115 -5685 5686 0
-5686 5740 0
-116 -5686 5687 0
-5687 5741 0
-117 -5687 5688 0
-5688 5742 0
-118 -5688 5689 0
-5689 5743 0
-119 -5689 5690 0
-5690 5744 0
-120 -5690 5691 0
-5691 5745 0
-121 -5691 5692 0
-5692 5746 0
-122 -5692 5693 0
-5693 5747 0
-123 -5693 5694 0
-5694 5748 0
-124 -5694 5695 0
-5695 5749 0
-125 -5695 5696 0
-5696 5750 0
-126 -5696 5697 0
-5697 5751 0
-127 -5697 5698 0
-5698 5752 0
-128 -5698 5699 0
-5699 5753 0
-129 -5699 5700 0
-5700 5754 0
-130 -5700 5701 0
-5701 5755 0
-131 -5701 5702 0
-5702 5756 0
-132 -5702 5703 0
-5703 5757 0
-133 -5703 5704 0
-5704 5758 0
-134 -5704 5705 0
-5705 5759 0
-135 -5705 5706 0
-5706 5760 0
-136 -5706 5707 0
-5707 5761 0
-137 -5707 5708 0
-5708 5762 0
-138 -5708 5709 0
-5709 5763 0
-139 -5709 5710 0
-5710 5764 0
-140 -5710 5711 0
-5711 5765 0
-141 -5711 5712 0
-5712 5766 0
-142 -5712 5713 0
-5713 5767 0
-143 -5713 5714 0
-5714 5768 0
-144 -5714 5715 0
-5715 5769 0
-145 -5715 5716 0
-5716 5770 0
-146 -5716 5717 0
-5717 5771 0
-147 -5717 5718 0
-5718 5772 0
-148 -5718 5719 0
-5719 5773 0
-149 -5719 5720 0
-5720 5774 0
-150 -5720 5721 0
-5721 5775 0
-151 -5721 5722 0
-5722 5776 0
-152 -5722 5723 0
-5723 5777 0
-153 -5723 0
-100 5724 0
-5724 5778 0
-101 -5724 5725 0
-5725 5779 0
-102 -5725 5726 0
-5726 5780 0
-103 -5726 5727 0
-5727 5781 0
-104 -5727 5728 0
-5728 5782 0
-105 -5728 5729 0
-5729 5783 0
-106 -5729 5730 0
-5730 5784 0
-107 -5730 5731 0
-5731 5785 0
-108 -5731 5732 0
-5732 5786 0
-109 -5732 5733 0
-5733 5787 0
-110 -5733 5734 0
-5734 5788 0
-111 -5734 5735 0
-5735 5789 0
-112 -5735 5736 0
-5736 5790 0
-113 -5736 5737 0
-5737 5791 0
-114 -5737 5738 0
-5738 5792 0
-115 -5738 5739 0
-5739 5793 0
-116 -5739 5740 0
-5740 5794 0
-117 -5740 5741 0
-5741 5795 0
-118 -5741 5742 0
-5742 5796 0
-119 -5742 5743 0
-5743 5797 0
-120 -5743 5744 0
-5744 5798 0
-121 -5744 5745 0
-5745 5799 0
-122 -5745 5746 0
-5746 5800 0
-123 -5746 5747 0
-5747 5801 0
-124 -5747 5748 0
-5748 5802 0
-125 -5748 5749 0
-5749 5803 0
-126 -5749 5750 0
-5750 5804 0
-127 -5750 5751 0
-5751 5805 0
-128 -5751 5752 0
-5752 5806 0
-129 -5752 5753 0
-5753 5807 0
-130 -5753 5754 0
-5754 5808 0
-131 -5754 5755 0
-5755 5809 0
-132 -5755 5756 0
-5756 5810 0
-133 -5756 5757 0
-5757 5811 0
-134 -5757 5758 0
-5758 5812 0
-135 -5758 5759 0
-5759 5813 0
-136 -5759 5760 0
-5760 5814 0
-137 -5760 5761 0
-5761 5815 0
-138 -5761 5762 0
-5762 5816 0
-139 -5762 5763 0
-5763 5817 0
-140 -5763 5764 0
-5764 5818 0
-141 -5764 5765 0
-5765 5819 0
-142 -5765 5766 0
-5766 5820 0
-143 -5766 5767 0
-5767 5821 0
-144 -5767 5768 0
-5768 5822 0
-145 -5768 5769 0
-5769 5823 0
-146 -5769 5770 0
-5770 5824 0
-147 -5770 5771 0
-5771 5825 0
-148 -5771 5772 0
-5772 5826 0
-149 -5772 5773 0
-5773 5827 0
-150 -5773 5774 0
-5774 5828 0
-151 -5774 5775 0
-5775 5829 0
-152 -5775 5776 0
-5776 5830 0
-153 -5776 5777 0
-5777 5831 0
-154 -5777 0
-101 5778 0
-5778 5832 0
-102 -5778 5779 0
-5779 5833 0
-103 -5779 5780 0
-5780 5834 0
-104 -5780 5781 0
-5781 5835 0
-105 -5781 5782 0
-5782 5836 0
-106 -5782 5783 0
-5783 5837 0
-107 -5783 5784 0
-5784 5838 0
-108 -5784 5785 0
-5785 5839 0
-109 -5785 5786 0
-5786 5840 0
-110 -5786 5787 0
-5787 5841 0
-111 -5787 5788 0
-5788 5842 0
-112 -5788 5789 0
-5789 5843 0
-113 -5789 5790 0
-5790 5844 0
-114 -5790 5791 0
-5791 5845 0
-115 -5791 5792 0
-5792 5846 0
-116 -5792 5793 0
-5793 5847 0
-117 -5793 5794 0
-5794 5848 0
-118 -5794 5795 0
-5795 5849 0
-119 -5795 5796 0
-5796 5850 0
-120 -5796 5797 0
-5797 5851 0
-121 -5797 5798 0
-5798 5852 0
-122 -5798 5799 0
-5799 5853 0
-123 -5799 5800 0
-5800 5854 0
-124 -5800 5801 0
-5801 5855 0
-125 -5801 5802 0
-5802 5856 0
-126 -5802 5803 0
-5803 5857 0
-127 -5803 5804 0
-5804 5858 0
-128 -5804 5805 0
-5805 5859 0
-129 -5805 5806 0
-5806 5860 0
-130 -5806 5807 0
-5807 5861 0
-131 -5807 5808 0
-5808 5862 0
-132 -5808 5809 0
-5809 5863 0
-133 -5809 5810 0
-5810 5864 0
-134 -5810 5811 0
-5811 5865 0
-135 -5811 5812 0
-5812 5866 0
-136 -5812 5813 0
-5813 5867 0
-137 -5813 5814 0
-5814 5868 0
-138 -5814 5815 0
-5815 5869 0
-139 -5815 5816 0
-5816 5870 0
-140 -5816 5817 0
-5817 5871 0
-141 -5817 5818 0
-5818 5872 0
-142 -5818 5819 0
-5819 5873 0
-143 -5819 5820 0
-5820 5874 0
-144 -5820 5821 0
-5821 5875 0
-145 -5821 5822 0
-5822 5876 0
-146 -5822 5823 0
-5823 5877 0
-147 -5823 5824 0
-5824 5878 0
-148 -5824 5825 0
-5825 5879 0
-149 -5825 5826 0
-5826 5880 0
-150 -5826 5827 0
-5827 5881 0
-151 -5827 5828 0
-5828 5882 0
-152 -5828 5829 0
-5829 5883 0
-153 -5829 5830 0
-5830 5884 0
-154 -5830 5831 0
-5831 5885 0
-155 -5831 0
-102 5832 0
-5832 5886 0
-103 -5832 5833 0
-5833 5887 0
-104 -5833 5834 0
-5834 5888 0
-105 -5834 5835 0
-5835 5889 0
-106 -5835 5836 0
-5836 5890 0
-107 -5836 5837 0
-5837 5891 0
-108 -5837 5838 0
-5838 5892 0
-109 -5838 5839 0
-5839 5893 0
-110 -5839 5840 0
-5840 5894 0
-111 -5840 5841 0
-5841 5895 0
-112 -5841 5842 0
-5842 5896 0
-113 -5842 5843 0
-5843 5897 0
-114 -5843 5844 0
-5844 5898 0
-115 -5844 5845 0
-5845 5899 0
-116 -5845 5846 0
-5846 5900 0
-117 -5846 5847 0
-5847 5901 0
-118 -5847 5848 0
-5848 5902 0
-119 -5848 5849 0
-5849 5903 0
-120 -5849 5850 0
-5850 5904 0
-121 -5850 5851 0
-5851 5905 0
-122 -5851 5852 0
-5852 5906 0
-123 -5852 5853 0
-5853 5907 0
-124 -5853 5854 0
-5854 5908 0
-125 -5854 5855 0
-5855 5909 0
-126 -5855 5856 0
-5856 5910 0
-127 -5856 5857 0
-5857 5911 0
-128 -5857 5858 0
-5858 5912 0
-129 -5858 5859 0
-5859 5913 0
-130 -5859 5860 0
-5860 5914 0
-131 -5860 5861 0
-5861 5915 0
-132 -5861 5862 0
-5862 5916 0
-133 -5862 5863 0
-5863 5917 0
-134 -5863 5864 0
-5864 5918 0
-135 -5864 5865 0
-5865 5919 0
-136 -5865 5866 0
-5866 5920 0
-137 -5866 5867 0
-5867 5921 0
-138 -5867 5868 0
-5868 5922 0
-139 -5868 5869 0
-5869 5923 0
-140 -5869 5870 0
-5870 5924 0
-141 -5870 5871 0
-5871 5925 0
-142 -5871 5872 0
-5872 5926 0
-143 -5872 5873 0
-5873 5927 0
-144 -5873 5874 0
-5874 5928 0
-145 -5874 5875 0
-5875 5929 0
-146 -5875 5876 0
-5876 5930 0
-147 -5876 5877 0
-5877 5931 0
-148 -5877 5878 0
-5878 5932 0
-149 -5878 5879 0
-5879 5933 0
-150 -5879 5880 0
-5880 5934 0
-151 -5880 5881 0
-5881 5935 0
-152 -5881 5882 0
-5882 5936 0
-153 -5882 5883 0
-5883 5937 0
-154 -5883 5884 0
-5884 5938 0
-155 -5884 5885 0
-5885 5939 0
-156 -5885 0
-103 5886 0
-5886 5940 0
-104 -5886 5887 0
-5887 5941 0
-105 -5887 5888 0
-5888 5942 0
-106 -5888 5889 0
-5889 5943 0
-107 -5889 5890 0
-5890 5944 0
-108 -5890 5891 0
-5891 5945 0
-109 -5891 5892 0
-5892 5946 0
-110 -5892 5893 0
-5893 5947 0
-111 -5893 5894 0
-5894 5948 0
-112 -5894 5895 0
-5895 5949 0
-113 -5895 5896 0
-5896 5950 0
-114 -5896 5897 0
-5897 5951 0
-115 -5897 5898 0
-5898 5952 0
-116 -5898 5899 0
-5899 5953 0
-117 -5899 5900 0
-5900 5954 0
-118 -5900 5901 0
-5901 5955 0
-119 -5901 5902 0
-5902 5956 0
-120 -5902 5903 0
-5903 5957 0
-121 -5903 5904 0
-5904 5958 0
-122 -5904 5905 0
-5905 5959 0
-123 -5905 5906 0
-5906 5960 0
-124 -5906 5907 0
-5907 5961 0
-125 -5907 5908 0
-5908 5962 0
-126 -5908 5909 0
-5909 5963 0
-127 -5909 5910 0
-5910 5964 0
-128 -5910 5911 0
-5911 5965 0
-129 -5911 5912 0
-5912 5966 0
-130 -5912 5913 0
-5913 5967 0
-131 -5913 5914 0
-5914 5968 0
-132 -5914 5915 0
-5915 5969 0
-133 -5915 5916 0
-5916 5970 0
-134 -5916 5917 0
-5917 5971 0
-135 -5917 5918 0
-5918 5972 0
-136 -5918 5919 0
-5919 5973 0
-137 -5919 5920 0
-5920 5974 0
-138 -5920 5921 0
-5921 5975 0
-139 -5921 5922 0
-5922 5976 0
-140 -5922 5923 0
-5923 5977 0
-141 -5923 5924 0
-5924 5978 0
-142 -5924 5925 0
-5925 5979 0
-143 -5925 5926 0
-5926 5980 0
-144 -5926 5927 0
-5927 5981 0
-145 -5927 5928 0
-5928 5982 0
-146 -5928 5929 0
-5929 5983 0
-147 -5929 5930 0
-5930 5984 0
-148 -5930 5931 0
-5931 5985 0
-149 -5931 5932 0
-5932 5986 0
-150 -5932 5933 0
-5933 5987 0
-151 -5933 5934 0
-5934 5988 0
-152 -5934 5935 0
-5935 5989 0
-153 -5935 5936 0
-5936 5990 0
-154 -5936 5937 0
-5937 5991 0
-155 -5937 5938 0
-5938 5992 0
-156 -5938 5939 0
-5939 5993 0
-157 -5939 0
-104 5940 0
-5940 5994 0
-105 -5940 5941 0
-5941 5995 0
-106 -5941 5942 0
-5942 5996 0
-107 -5942 5943 0
-5943 5997 0
-108 -5943 5944 0
-5944 5998 0
-109 -5944 5945 0
-5945 5999 0
-110 -5945 5946 0
-5946 6000 0
-111 -5946 5947 0
-5947 6001 0
-112 -5947 5948 0
-5948 6002 0
-113 -5948 5949 0
-5949 6003 0
-114 -5949 5950 0
-5950 6004 0
-115 -5950 5951 0
-5951 6005 0
-116 -5951 5952 0
-5952 6006 0
-117 -5952 5953 0
-5953 6007 0
-118 -5953 5954 0
-5954 6008 0
-119 -5954 5955 0
-5955 6009 0
-120 -5955 5956 0
-5956 6010 0
-121 -5956 5957 0
-5957 6011 0
-122 -5957 5958 0
-5958 6012 0
-123 -5958 5959 0
-5959 6013 0
-124 -5959 5960 0
-5960 6014 0
-125 -5960 5961 0
-5961 6015 0
-126 -5961 5962 0
-5962 6016 0
-127 -5962 5963 0
-5963 6017 0
-128 -5963 5964 0
-5964 6018 0
-129 -5964 5965 0
-5965 6019 0
-130 -5965 5966 0
-5966 6020 0
-131 -5966 5967 0
-5967 6021 0
-132 -5967 5968 0
-5968 6022 0
-133 -5968 5969 0
-5969 6023 0
-134 -5969 5970 0
-5970 6024 0
-135 -5970 5971 0
-5971 6025 0
-136 -5971 5972 0
-5972 6026 0
-137 -5972 5973 0
-5973 6027 0
-138 -5973 5974 0
-5974 6028 0
-139 -5974 5975 0
-5975 6029 0
-140 -5975 5976 0
-5976 6030 0
-141 -5976 5977 0
-5977 6031 0
-142 -5977 5978 0
-5978 6032 0
-143 -5978 5979 0
-5979 6033 0
-144 -5979 5980 0
-5980 6034 0
-145 -5980 5981 0
-5981 6035 0
-146 -5981 5982 0
-5982 6036 0
-147 -5982 5983 0
-5983 6037 0
-148 -5983 5984 0
-5984 6038 0
-149 -5984 5985 0
-5985 6039 0
-150 -5985 5986 0
-5986 6040 0
-151 -5986 5987 0
-5987 6041 0
-152 -5987 5988 0
-5988 6042 0
-153 -5988 5989 0
-5989 6043 0
-154 -5989 5990 0
-5990 6044 0
-155 -5990 5991 0
-5991 6045 0
-156 -5991 5992 0
-5992 6046 0
-157 -5992 5993 0
-5993 6047 0
-158 -5993 0
-105 5994 0
-5994 6048 0
-106 -5994 5995 0
-5995 6049 0
-107 -5995 5996 0
-5996 6050 0
-108 -5996 5997 0
-5997 6051 0
-109 -5997 5998 0
-5998 6052 0
-110 -5998 5999 0
-5999 6053 0
-111 -5999 6000 0
-6000 6054 0
-112 -6000 6001 0
-6001 6055 0
-113 -6001 6002 0
-6002 6056 0
-114 -6002 6003 0
-6003 6057 0
-115 -6003 6004 0
-6004 6058 0
-116 -6004 6005 0
-6005 6059 0
-117 -6005 6006 0
-6006 6060 0
-118 -6006 6007 0
-6007 6061 0
-119 -6007 6008 0
-6008 6062 0
-120 -6008 6009 0
-6009 6063 0
-121 -6009 6010 0
-6010 6064 0
-122 -6010 6011 0
-6011 6065 0
-123 -6011 6012 0
-6012 6066 0
-124 -6012 6013 0
-6013 6067 0
-125 -6013 6014 0
-6014 6068 0
-126 -6014 6015 0
-6015 6069 0
-127 -6015 6016 0
-6016 6070 0
-128 -6016 6017 0
-6017 6071 0
-129 -6017 6018 0
-6018 6072 0
-130 -6018 6019 0
-6019 6073 0
-131 -6019 6020 0
-6020 6074 0
-132 -6020 6021 0
-6021 6075 0
-133 -6021 6022 0
-6022 6076 0
-134 -6022 6023 0
-6023 6077 0
-135 -6023 6024 0
-6024 6078 0
-136 -6024 6025 0
-6025 6079 0
-137 -6025 6026 0
-6026 6080 0
-138 -6026 6027 0
-6027 6081 0
-139 -6027 6028 0
-6028 6082 0
-140 -6028 6029 0
-6029 6083 0
-141 -6029 6030 0
-6030 6084 0
-142 -6030 6031 0
-6031 6085 0
-143 -6031 6032 0
-6032 6086 0
-144 -6032 6033 0
-6033 6087 0
-145 -6033 6034 0
-6034 6088 0
-146 -6034 6035 0
-6035 6089 0
-147 -6035 6036 0
-6036 6090 0
-148 -6036 6037 0
-6037 6091 0
-149 -6037 6038 0
-6038 6092 0
-150 -6038 6039 0
-6039 6093 0
-151 -6039 6040 0
-6040 6094 0
-152 -6040 6041 0
-6041 6095 0
-153 -6041 6042 0
-6042 6096 0
-154 -6042 6043 0
-6043 6097 0
-155 -6043 6044 0
-6044 6098 0
-156 -6044 6045 0
-6045 6099 0
-157 -6045 6046 0
-6046 6100 0
-158 -6046 6047 0
-6047 6101 0
-159 -6047 0
-106 6048 0
-6048 6102 0
-107 -6048 6049 0
-6049 6103 0
-108 -6049 6050 0
-6050 6104 0
-109 -6050 6051 0
-6051 6105 0
-110 -6051 6052 0
-6052 6106 0
-111 -6052 6053 0
-6053 6107 0
-112 -6053 6054 0
-6054 6108 0
-113 -6054 6055 0
-6055 6109 0
-114 -6055 6056 0
-6056 6110 0
-115 -6056 6057 0
-6057 6111 0
-116 -6057 6058 0
-6058 6112 0
-117 -6058 6059 0
-6059 6113 0
-118 -6059 6060 0
-6060 6114 0
-119 -6060 6061 0
-6061 6115 0
-120 -6061 6062 0
-6062 6116 0
-121 -6062 6063 0
-6063 6117 0
-122 -6063 6064 0
-6064 6118 0
-123 -6064 6065 0
-6065 6119 0
-124 -6065 6066 0
-6066 6120 0
-125 -6066 6067 0
-6067 6121 0
-126 -6067 6068 0
-6068 6122 0
-127 -6068 6069 0
-6069 6123 0
-128 -6069 6070 0
-6070 6124 0
-129 -6070 6071 0
-6071 6125 0
-130 -6071 6072 0
-6072 6126 0
-131 -6072 6073 0
-6073 6127 0
-132 -6073 6074 0
-6074 6128 0
-133 -6074 6075 0
-6075 6129 0
-134 -6075 6076 0
-6076 6130 0
-135 -6076 6077 0
-6077 6131 0
-136 -6077 6078 0
-6078 6132 0
-137 -6078 6079 0
-6079 6133 0
-138 -6079 6080 0
-6080 6134 0
-139 -6080 6081 0
-6081 6135 0
-140 -6081 6082 0
-6082 6136 0
-141 -6082 6083 0
-6083 6137 0
-142 -6083 6084 0
-6084 6138 0
-143 -6084 6085 0
-6085 6139 0
-144 -6085 6086 0
-6086 6140 0
-145 -6086 6087 0
-6087 6141 0
-146 -6087 6088 0
-6088 6142 0
-147 -6088 6089 0
-6089 6143 0
-148 -6089 6090 0
-6090 6144 0
-149 -6090 6091 0
-6091 6145 0
-150 -6091 6092 0
-6092 6146 0
-151 -6092 6093 0
-6093 6147 0
-152 -6093 6094 0
-6094 6148 0
-153 -6094 6095 0
-6095 6149 0
-154 -6095 6096 0
-6096 6150 0
-155 -6096 6097 0
-6097 6151 0
-156 -6097 6098 0
-6098 6152 0
-157 -6098 6099 0
-6099 6153 0
-158 -6099 6100 0
-6100 6154 0
-159 -6100 6101 0
-6101 6155 0
-160 -6101 0
-107 6102 0
-6102 6156 0
-108 -6102 6103 0
-6103 6157 0
-109 -6103 6104 0
-6104 6158 0
-110 -6104 6105 0
-6105 6159 0
-111 -6105 6106 0
-6106 6160 0
-112 -6106 6107 0
-6107 6161 0
-113 -6107 6108 0
-6108 6162 0
-114 -6108 6109 0
-6109 6163 0
-115 -6109 6110 0
-6110 6164 0
-116 -6110 6111 0
-6111 6165 0
-117 -6111 6112 0
-6112 6166 0
-118 -6112 6113 0
-6113 6167 0
-119 -6113 6114 0
-6114 6168 0
-120 -6114 6115 0
-6115 6169 0
-121 -6115 6116 0
-6116 6170 0
-122 -6116 6117 0
-6117 6171 0
-123 -6117 6118 0
-6118 6172 0
-124 -6118 6119 0
-6119 6173 0
-125 -6119 6120 0
-6120 6174 0
-126 -6120 6121 0
-6121 6175 0
-127 -6121 6122 0
-6122 6176 0
-128 -6122 6123 0
-6123 6177 0
-129 -6123 6124 0
-6124 6178 0
-130 -6124 6125 0
-6125 6179 0
-131 -6125 6126 0
-6126 6180 0
-132 -6126 6127 0
-6127 6181 0
-133 -6127 6128 0
-6128 6182 0
-134 -6128 6129 0
-6129 6183 0
-135 -6129 6130 0
-6130 6184 0
-136 -6130 6131 0
-6131 6185 0
-137 -6131 6132 0
-6132 6186 0
-138 -6132 6133 0
-6133 6187 0
-139 -6133 6134 0
-6134 6188 0
-140 -6134 6135 0
-6135 6189 0
-141 -6135 6136 0
-6136 6190 0
-142 -6136 6137 0
-6137 6191 0
-143 -6137 6138 0
-6138 6192 0
-144 -6138 6139 0
-6139 6193 0
-145 -6139 6140 0
-6140 6194 0
-146 -6140 6141 0
-6141 6195 0
-147 -6141 6142 0
-6142 6196 0
-148 -6142 6143 0
-6143 6197 0
-149 -6143 6144 0
-6144 6198 0
-150 -6144 6145 0
-6145 6199 0
-151 -6145 6146 0
-6146 6200 0
-152 -6146 6147 0
-6147 6201 0
-153 -6147 6148 0
-6148 6202 0
-154 -6148 6149 0
-6149 6203 0
-155 -6149 6150 0
-6150 6204 0
-156 -6150 6151 0
-6151 6205 0
-157 -6151 6152 0
-6152 6206 0
-158 -6152 6153 0
-6153 6207 0
-159 -6153 6154 0
-6154 6208 0
-160 -6154 6155 0
-6155 6209 0
-161 -6155 0
-108 6156 0
-6156 6210 0
-109 -6156 6157 0
-6157 6211 0
-110 -6157 6158 0
-6158 6212 0
-111 -6158 6159 0
-6159 6213 0
-112 -6159 6160 0
-6160 6214 0
-113 -6160 6161 0
-6161 6215 0
-114 -6161 6162 0
-6162 6216 0
-115 -6162 6163 0
-6163 6217 0
-116 -6163 6164 0
-6164 6218 0
-117 -6164 6165 0
-6165 6219 0
-118 -6165 6166 0
-6166 6220 0
-119 -6166 6167 0
-6167 6221 0
-120 -6167 6168 0
-6168 6222 0
-121 -6168 6169 0
-6169 6223 0
-122 -6169 6170 0
-6170 6224 0
-123 -6170 6171 0
-6171 6225 0
-124 -6171 6172 0
-6172 6226 0
-125 -6172 6173 0
-6173 6227 0
-126 -6173 6174 0
-6174 6228 0
-127 -6174 6175 0
-6175 6229 0
-128 -6175 6176 0
-6176 6230 0
-129 -6176 6177 0
-6177 6231 0
-130 -6177 6178 0
-6178 6232 0
-131 -6178 6179 0
-6179 6233 0
-132 -6179 6180 0
-6180 6234 0
-133 -6180 6181 0
-6181 6235 0
-134 -6181 6182 0
-6182 6236 0
-135 -6182 6183 0
-6183 6237 0
-136 -6183 6184 0
-6184 6238 0
-137 -6184 6185 0
-6185 6239 0
-138 -6185 6186 0
-6186 6240 0
-139 -6186 6187 0
-6187 6241 0
-140 -6187 6188 0
-6188 6242 0
-141 -6188 6189 0
-6189 6243 0
-142 -6189 6190 0
-6190 6244 0
-143 -6190 6191 0
-6191 6245 0
-144 -6191 6192 0
-6192 6246 0
-145 -6192 6193 0
-6193 6247 0
-146 -6193 6194 0
-6194 6248 0
-147 -6194 6195 0
-6195 6249 0
-148 -6195 6196 0
-6196 6250 0
-149 -6196 6197 0
-6197 6251 0
-150 -6197 6198 0
-6198 6252 0
-151 -6198 6199 0
-6199 6253 0
-152 -6199 6200 0
-6200 6254 0
-153 -6200 6201 0
-6201 6255 0
-154 -6201 6202 0
-6202 6256 0
-155 -6202 6203 0
-6203 6257 0
-156 -6203 6204 0
-6204 6258 0
-157 -6204 6205 0
-6205 6259 0
-158 -6205 6206 0
-6206 6260 0
-159 -6206 6207 0
-6207 6261 0
-160 -6207 6208 0
-6208 6262 0
-161 -6208 6209 0
-6209 6263 0
-162 -6209 0
-109 6210 0
-6210 6264 0
-110 -6210 6211 0
-6211 6265 0
-111 -6211 6212 0
-6212 6266 0
-112 -6212 6213 0
-6213 6267 0
-113 -6213 6214 0
-6214 6268 0
-114 -6214 6215 0
-6215 6269 0
-115 -6215 6216 0
-6216 6270 0
-116 -6216 6217 0
-6217 6271 0
-117 -6217 6218 0
-6218 6272 0
-118 -6218 6219 0
-6219 6273 0
-119 -6219 6220 0
-6220 6274 0
-120 -6220 6221 0
-6221 6275 0
-121 -6221 6222 0
-6222 6276 0
-122 -6222 6223 0
-6223 6277 0
-123 -6223 6224 0
-6224 6278 0
-124 -6224 6225 0
-6225 6279 0
-125 -6225 6226 0
-6226 6280 0
-126 -6226 6227 0
-6227 6281 0
-127 -6227 6228 0
-6228 6282 0
-128 -6228 6229 0
-6229 6283 0
-129 -6229 6230 0
-6230 6284 0
-130 -6230 6231 0
-6231 6285 0
-131 -6231 6232 0
-6232 6286 0
-132 -6232 6233 0
-6233 6287 0
-133 -6233 6234 0
-6234 6288 0
-134 -6234 6235 0
-6235 6289 0
-135 -6235 6236 0
-6236 6290 0
-136 -6236 6237 0
-6237 6291 0
-137 -6237 6238 0
-6238 6292 0
-138 -6238 6239 0
-6239 6293 0
-139 -6239 6240 0
-6240 6294 0
-140 -6240 6241 0
-6241 6295 0
-141 -6241 6242 0
-6242 6296 0
-142 -6242 6243 0
-6243 6297 0
-143 -6243 6244 0
-6244 6298 0
-144 -6244 6245 0
-6245 6299 0
-145 -6245 6246 0
-6246 6300 0
-146 -6246 6247 0
-6247 6301 0
-147 -6247 6248 0
-6248 6302 0
-148 -6248 6249 0
-6249 6303 0
-149 -6249 6250 0
-6250 6304 0
-150 -6250 6251 0
-6251 6305 0
-151 -6251 6252 0
-6252 6306 0
-152 -6252 6253 0
-6253 6307 0
-153 -6253 6254 0
-6254 6308 0
-154 -6254 6255 0
-6255 6309 0
-155 -6255 6256 0
-6256 6310 0
-156 -6256 6257 0
-6257 6311 0
-157 -6257 6258 0
-6258 6312 0
-158 -6258 6259 0
-6259 6313 0
-159 -6259 6260 0
-6260 6314 0
-160 -6260 6261 0
-6261 6315 0
-161 -6261 6262 0
-6262 6316 0
-162 -6262 6263 0
-6263 6317 0
-163 -6263 0
-110 6264 0
-6264 6318 0
-111 -6264 6265 0
-6265 6319 0
-112 -6265 6266 0
-6266 6320 0
-113 -6266 6267 0
-6267 6321 0
-114 -6267 6268 0
-6268 6322 0
-115 -6268 6269 0
-6269 6323 0
-116 -6269 6270 0
-6270 6324 0
-117 -6270 6271 0
-6271 6325 0
-118 -6271 6272 0
-6272 6326 0
-119 -6272 6273 0
-6273 6327 0
-120 -6273 6274 0
-6274 6328 0
-121 -6274 6275 0
-6275 6329 0
-122 -6275 6276 0
-6276 6330 0
-123 -6276 6277 0
-6277 6331 0
-124 -6277 6278 0
-6278 6332 0
-125 -6278 6279 0
-6279 6333 0
-126 -6279 6280 0
-6280 6334 0
-127 -6280 6281 0
-6281 6335 0
-128 -6281 6282 0
-6282 6336 0
-129 -6282 6283 0
-6283 6337 0
-130 -6283 6284 0
-6284 6338 0
-131 -6284 6285 0
-6285 6339 0
-132 -6285 6286 0
-6286 6340 0
-133 -6286 6287 0
-6287 6341 0
-134 -6287 6288 0
-6288 6342 0
-135 -6288 6289 0
-6289 6343 0
-136 -6289 6290 0
-6290 6344 0
-137 -6290 6291 0
-6291 6345 0
-138 -6291 6292 0
-6292 6346 0
-139 -6292 6293 0
-6293 6347 0
-140 -6293 6294 0
-6294 6348 0
-141 -6294 6295 0
-6295 6349 0
-142 -6295 6296 0
-6296 6350 0
-143 -6296 6297 0
-6297 6351 0
-144 -6297 6298 0
-6298 6352 0
-145 -6298 6299 0
-6299 6353 0
-146 -6299 6300 0
-6300 6354 0
-147 -6300 6301 0
-6301 6355 0
-148 -6301 6302 0
-6302 6356 0
-149 -6302 6303 0
-6303 6357 0
-150 -6303 6304 0
-6304 6358 0
-151 -6304 6305 0
-6305 6359 0
-152 -6305 6306 0
-6306 6360 0
-153 -6306 6307 0
-6307 6361 0
-154 -6307 6308 0
-6308 6362 0
-155 -6308 6309 0
-6309 6363 0
-156 -6309 6310 0
-6310 6364 0
-157 -6310 6311 0
-6311 6365 0
-158 -6311 6312 0
-6312 6366 0
-159 -6312 6313 0
-6313 6367 0
-160 -6313 6314 0
-6314 6368 0
-161 -6314 6315 0
-6315 6369 0
-162 -6315 6316 0
-6316 6370 0
-163 -6316 6317 0
-6317 6371 0
-164 -6317 0
-111 6318 0
-6318 6372 0
-112 -6318 6319 0
-6319 6373 0
-113 -6319 6320 0
-6320 6374 0
-114 -6320 6321 0
-6321 6375 0
-115 -6321 6322 0
-6322 6376 0
-116 -6322 6323 0
-6323 6377 0
-117 -6323 6324 0
-6324 6378 0
-118 -6324 6325 0
-6325 6379 0
-119 -6325 6326 0
-6326 6380 0
-120 -6326 6327 0
-6327 6381 0
-121 -6327 6328 0
-6328 6382 0
-122 -6328 6329 0
-6329 6383 0
-123 -6329 6330 0
-6330 6384 0
-124 -6330 6331 0
-6331 6385 0
-125 -6331 6332 0
-6332 6386 0
-126 -6332 6333 0
-6333 6387 0
-127 -6333 6334 0
-6334 6388 0
-128 -6334 6335 0
-6335 6389 0
-129 -6335 6336 0
-6336 6390 0
-130 -6336 6337 0
-6337 6391 0
-131 -6337 6338 0
-6338 6392 0
-132 -6338 6339 0
-6339 6393 0
-133 -6339 6340 0
-6340 6394 0
-134 -6340 6341 0
-6341 6395 0
-135 -6341 6342 0
-6342 6396 0
-136 -6342 6343 0
-6343 6397 0
-137 -6343 6344 0
-6344 6398 0
-138 -6344 6345 0
-6345 6399 0
-139 -6345 6346 0
-6346 6400 0
-140 -6346 6347 0
-6347 6401 0
-141 -6347 6348 0
-6348 6402 0
-142 -6348 6349 0
-6349 6403 0
-143 -6349 6350 0
-6350 6404 0
-144 -6350 6351 0
-6351 6405 0
-145 -6351 6352 0
-6352 6406 0
-146 -6352 6353 0
-6353 6407 0
-147 -6353 6354 0
-6354 6408 0
-148 -6354 6355 0
-6355 6409 0
-149 -6355 6356 0
-6356 6410 0
-150 -6356 6357 0
-6357 6411 0
-151 -6357 6358 0
-6358 6412 0
-152 -6358 6359 0
-6359 6413 0
-153 -6359 6360 0
-6360 6414 0
-154 -6360 6361 0
-6361 6415 0
-155 -6361 6362 0
-6362 6416 0
-156 -6362 6363 0
-6363 6417 0
-157 -6363 6364 0
-6364 6418 0
-158 -6364 6365 0
-6365 6419 0
-159 -6365 6366 0
-6366 6420 0
-160 -6366 6367 0
-6367 6421 0
-161 -6367 6368 0
-6368 6422 0
-162 -6368 6369 0
-6369 6423 0
-163 -6369 6370 0
-6370 6424 0
-164 -6370 6371 0
-6371 6425 0
-165 -6371 0
-112 6372 0
-6372 6426 0
-113 -6372 6373 0
-6373 6427 0
-114 -6373 6374 0
-6374 6428 0
-115 -6374 6375 0
-6375 6429 0
-116 -6375 6376 0
-6376 6430 0
-117 -6376 6377 0
-6377 6431 0
-118 -6377 6378 0
-6378 6432 0
-119 -6378 6379 0
-6379 6433 0
-120 -6379 6380 0
-6380 6434 0
-121 -6380 6381 0
-6381 6435 0
-122 -6381 6382 0
-6382 6436 0
-123 -6382 6383 0
-6383 6437 0
-124 -6383 6384 0
-6384 6438 0
-125 -6384 6385 0
-6385 6439 0
-126 -6385 6386 0
-6386 6440 0
-127 -6386 6387 0
-6387 6441 0
-128 -6387 6388 0
-6388 6442 0
-129 -6388 6389 0
-6389 6443 0
-130 -6389 6390 0
-6390 6444 0
-131 -6390 6391 0
-6391 6445 0
-132 -6391 6392 0
-6392 6446 0
-133 -6392 6393 0
-6393 6447 0
-134 -6393 6394 0
-6394 6448 0
-135 -6394 6395 0
-6395 6449 0
-136 -6395 6396 0
-6396 6450 0
-137 -6396 6397 0
-6397 6451 0
-138 -6397 6398 0
-6398 6452 0
-139 -6398 6399 0
-6399 6453 0
-140 -6399 6400 0
-6400 6454 0
-141 -6400 6401 0
-6401 6455 0
-142 -6401 6402 0
-6402 6456 0
-143 -6402 6403 0
-6403 6457 0
-144 -6403 6404 0
-6404 6458 0
-145 -6404 6405 0
-6405 6459 0
-146 -6405 6406 0
-6406 6460 0
-147 -6406 6407 0
-6407 6461 0
-148 -6407 6408 0
-6408 6462 0
-149 -6408 6409 0
-6409 6463 0
-150 -6409 6410 0
-6410 6464 0
-151 -6410 6411 0
-6411 6465 0
-152 -6411 6412 0
-6412 6466 0
-153 -6412 6413 0
-6413 6467 0
-154 -6413 6414 0
-6414 6468 0
-155 -6414 6415 0
-6415 6469 0
-156 -6415 6416 0
-6416 6470 0
-157 -6416 6417 0
-6417 6471 0
-158 -6417 6418 0
-6418 6472 0
-159 -6418 6419 0
-6419 6473 0
-160 -6419 6420 0
-6420 6474 0
-161 -6420 6421 0
-6421 6475 0
-162 -6421 6422 0
-6422 6476 0
-163 -6422 6423 0
-6423 6477 0
-164 -6423 6424 0
-6424 6478 0
-165 -6424 6425 0
-6425 6479 0
-166 -6425 0
-113 6426 0
-6426 6480 0
-114 -6426 6427 0
-6427 6481 0
-115 -6427 6428 0
-6428 6482 0
-116 -6428 6429 0
-6429 6483 0
-117 -6429 6430 0
-6430 6484 0
-118 -6430 6431 0
-6431 6485 0
-119 -6431 6432 0
-6432 6486 0
-120 -6432 6433 0
-6433 6487 0
-121 -6433 6434 0
-6434 6488 0
-122 -6434 6435 0
-6435 6489 0
-123 -6435 6436 0
-6436 6490 0
-124 -6436 6437 0
-6437 6491 0
-125 -6437 6438 0
-6438 6492 0
-126 -6438 6439 0
-6439 6493 0
-127 -6439 6440 0
-6440 6494 0
-128 -6440 6441 0
-6441 6495 0
-129 -6441 6442 0
-6442 6496 0
-130 -6442 6443 0
-6443 6497 0
-131 -6443 6444 0
-6444 6498 0
-132 -6444 6445 0
-6445 6499 0
-133 -6445 6446 0
-6446 6500 0
-134 -6446 6447 0
-6447 6501 0
-135 -6447 6448 0
-6448 6502 0
-136 -6448 6449 0
-6449 6503 0
-137 -6449 6450 0
-6450 6504 0
-138 -6450 6451 0
-6451 6505 0
-139 -6451 6452 0
-6452 6506 0
-140 -6452 6453 0
-6453 6507 0
-141 -6453 6454 0
-6454 6508 0
-142 -6454 6455 0
-6455 6509 0
-143 -6455 6456 0
-6456 6510 0
-144 -6456 6457 0
-6457 6511 0
-145 -6457 6458 0
-6458 6512 0
-146 -6458 6459 0
-6459 6513 0
-147 -6459 6460 0
-6460 6514 0
-148 -6460 6461 0
-6461 6515 0
-149 -6461 6462 0
-6462 6516 0
-150 -6462 6463 0
-6463 6517 0
-151 -6463 6464 0
-6464 6518 0
-152 -6464 6465 0
-6465 6519 0
-153 -6465 6466 0
-6466 6520 0
-154 -6466 6467 0
-6467 6521 0
-155 -6467 6468 0
-6468 6522 0
-156 -6468 6469 0
-6469 6523 0
-157 -6469 6470 0
-6470 6524 0
-158 -6470 6471 0
-6471 6525 0
-159 -6471 6472 0
-6472 6526 0
-160 -6472 6473 0
-6473 6527 0
-161 -6473 6474 0
-6474 6528 0
-162 -6474 6475 0
-6475 6529 0
-163 -6475 6476 0
-6476 6530 0
-164 -6476 6477 0
-6477 6531 0
-165 -6477 6478 0
-6478 6532 0
-166 -6478 6479 0
-6479 6533 0
-167 -6479 0
-114 6480 0
-6480 6534 0
-115 -6480 6481 0
-6481 6535 0
-116 -6481 6482 0
-6482 6536 0
-117 -6482 6483 0
-6483 6537 0
-118 -6483 6484 0
-6484 6538 0
-119 -6484 6485 0
-6485 6539 0
-120 -6485 6486 0
-6486 6540 0
-121 -6486 6487 0
-6487 6541 0
-122 -6487 6488 0
-6488 6542 0
-123 -6488 6489 0
-6489 6543 0
-124 -6489 6490 0
-6490 6544 0
-125 -6490 6491 0
-6491 6545 0
-126 -6491 6492 0
-6492 6546 0
-127 -6492 6493 0
-6493 6547 0
-128 -6493 6494 0
-6494 6548 0
-129 -6494 6495 0
-6495 6549 0
-130 -6495 6496 0
-6496 6550 0
-131 -6496 6497 0
-6497 6551 0
-132 -6497 6498 0
-6498 6552 0
-133 -6498 6499 0
-6499 6553 0
-134 -6499 6500 0
-6500 6554 0
-135 -6500 6501 0
-6501 6555 0
-136 -6501 6502 0
-6502 6556 0
-137 -6502 6503 0
-6503 6557 0
-138 -6503 6504 0
-6504 6558 0
-139 -6504 6505 0
-6505 6559 0
-140 -6505 6506 0
-6506 6560 0
-141 -6506 6507 0
-6507 6561 0
-142 -6507 6508 0
-6508 6562 0
-143 -6508 6509 0
-6509 6563 0
-144 -6509 6510 0
-6510 6564 0
-145 -6510 6511 0
-6511 6565 0
-146 -6511 6512 0
-6512 6566 0
-147 -6512 6513 0
-6513 6567 0
-148 -6513 6514 0
-6514 6568 0
-149 -6514 6515 0
-6515 6569 0
-150 -6515 6516 0
-6516 6570 0
-151 -6516 6517 0
-6517 6571 0
-152 -6517 6518 0
-6518 6572 0
-153 -6518 6519 0
-6519 6573 0
-154 -6519 6520 0
-6520 6574 0
-155 -6520 6521 0
-6521 6575 0
-156 -6521 6522 0
-6522 6576 0
-157 -6522 6523 0
-6523 6577 0
-158 -6523 6524 0
-6524 6578 0
-159 -6524 6525 0
-6525 6579 0
-160 -6525 6526 0
-6526 6580 0
-161 -6526 6527 0
-6527 6581 0
-162 -6527 6528 0
-6528 6582 0
-163 -6528 6529 0
-6529 6583 0
-164 -6529 6530 0
-6530 6584 0
-165 -6530 6531 0
-6531 6585 0
-166 -6531 6532 0
-6532 6586 0
-167 -6532 6533 0
-6533 6587 0
-168 -6533 0
-115 6534 0
-6534 6588 0
-116 -6534 6535 0
-6535 6589 0
-117 -6535 6536 0
-6536 6590 0
-118 -6536 6537 0
-6537 6591 0
-119 -6537 6538 0
-6538 6592 0
-120 -6538 6539 0
-6539 6593 0
-121 -6539 6540 0
-6540 6594 0
-122 -6540 6541 0
-6541 6595 0
-123 -6541 6542 0
-6542 6596 0
-124 -6542 6543 0
-6543 6597 0
-125 -6543 6544 0
-6544 6598 0
-126 -6544 6545 0
-6545 6599 0
-127 -6545 6546 0
-6546 6600 0
-128 -6546 6547 0
-6547 6601 0
-129 -6547 6548 0
-6548 6602 0
-130 -6548 6549 0
-6549 6603 0
-131 -6549 6550 0
-6550 6604 0
-132 -6550 6551 0
-6551 6605 0
-133 -6551 6552 0
-6552 6606 0
-134 -6552 6553 0
-6553 6607 0
-135 -6553 6554 0
-6554 6608 0
-136 -6554 6555 0
-6555 6609 0
-137 -6555 6556 0
-6556 6610 0
-138 -6556 6557 0
-6557 6611 0
-139 -6557 6558 0
-6558 6612 0
-140 -6558 6559 0
-6559 6613 0
-141 -6559 6560 0
-6560 6614 0
-142 -6560 6561 0
-6561 6615 0
-143 -6561 6562 0
-6562 6616 0
-144 -6562 6563 0
-6563 6617 0
-145 -6563 6564 0
-6564 6618 0
-146 -6564 6565 0
-6565 6619 0
-147 -6565 6566 0
-6566 6620 0
-148 -6566 6567 0
-6567 6621 0
-149 -6567 6568 0
-6568 6622 0
-150 -6568 6569 0
-6569 6623 0
-151 -6569 6570 0
-6570 6624 0
-152 -6570 6571 0
-6571 6625 0
-153 -6571 6572 0
-6572 6626 0
-154 -6572 6573 0
-6573 6627 0
-155 -6573 6574 0
-6574 6628 0
-156 -6574 6575 0
-6575 6629 0
-157 -6575 6576 0
-6576 6630 0
-158 -6576 6577 0
-6577 6631 0
-159 -6577 6578 0
-6578 6632 0
-160 -6578 6579 0
-6579 6633 0
-161 -6579 6580 0
-6580 6634 0
-162 -6580 6581 0
-6581 6635 0
-163 -6581 6582 0
-6582 6636 0
-164 -6582 6583 0
-6583 6637 0
-165 -6583 6584 0
-6584 6638 0
-166 -6584 6585 0
-6585 6639 0
-167 -6585 6586 0
-6586 6640 0
-168 -6586 6587 0
-6587 6641 0
-169 -6587 0
-116 6588 0
-6588 6642 0
-117 -6588 6589 0
-6589 6643 0
-118 -6589 6590 0
-6590 6644 0
-119 -6590 6591 0
-6591 6645 0
-120 -6591 6592 0
-6592 6646 0
-121 -6592 6593 0
-6593 6647 0
-122 -6593 6594 0
-6594 6648 0
-123 -6594 6595 0
-6595 6649 0
-124 -6595 6596 0
-6596 6650 0
-125 -6596 6597 0
-6597 6651 0
-126 -6597 6598 0
-6598 6652 0
-127 -6598 6599 0
-6599 6653 0
-128 -6599 6600 0
-6600 6654 0
-129 -6600 6601 0
-6601 6655 0
-130 -6601 6602 0
-6602 6656 0
-131 -6602 6603 0
-6603 6657 0
-132 -6603 6604 0
-6604 6658 0
-133 -6604 6605 0
-6605 6659 0
-134 -6605 6606 0
-6606 6660 0
-135 -6606 6607 0
-6607 6661 0
-136 -6607 6608 0
-6608 6662 0
-137 -6608 6609 0
-6609 6663 0
-138 -6609 6610 0
-6610 6664 0
-139 -6610 6611 0
-6611 6665 0
-140 -6611 6612 0
-6612 6666 0
-141 -6612 6613 0
-6613 6667 0
-142 -6613 6614 0
-6614 6668 0
-143 -6614 6615 0
-6615 6669 0
-144 -6615 6616 0
-6616 6670 0
-145 -6616 6617 0
-6617 6671 0
-146 -6617 6618 0
-6618 6672 0
-147 -6618 6619 0
-6619 6673 0
-148 -6619 6620 0
-6620 6674 0
-149 -6620 6621 0
-6621 6675 0
-150 -6621 6622 0
-6622 6676 0
-151 -6622 6623 0
-6623 6677 0
-152 -6623 6624 0
-6624 6678 0
-153 -6624 6625 0
-6625 6679 0
-154 -6625 6626 0
-6626 6680 0
-155 -6626 6627 0
-6627 6681 0
-156 -6627 6628 0
-6628 6682 0
-157 -6628 6629 0
-6629 6683 0
-158 -6629 6630 0
-6630 6684 0
-159 -6630 6631 0
-6631 6685 0
-160 -6631 6632 0
-6632 6686 0
-161 -6632 6633 0
-6633 6687 0
-162 -6633 6634 0
-6634 6688 0
-163 -6634 6635 0
-6635 6689 0
-164 -6635 6636 0
-6636 6690 0
-165 -6636 6637 0
-6637 6691 0
-166 -6637 6638 0
-6638 6692 0
-167 -6638 6639 0
-6639 6693 0
-168 -6639 6640 0
-6640 6694 0
-169 -6640 6641 0
-6641 6695 0
-170 -6641 0
-117 6642 0
-6642 6696 0
-118 -6642 6643 0
-6643 6697 0
-119 -6643 6644 0
-6644 6698 0
-120 -6644 6645 0
-6645 6699 0
-121 -6645 6646 0
-6646 6700 0
-122 -6646 6647 0
-6647 6701 0
-123 -6647 6648 0
-6648 6702 0
-124 -6648 6649 0
-6649 6703 0
-125 -6649 6650 0
-6650 6704 0
-126 -6650 6651 0
-6651 6705 0
-127 -6651 6652 0
-6652 6706 0
-128 -6652 6653 0
-6653 6707 0
-129 -6653 6654 0
-6654 6708 0
-130 -6654 6655 0
-6655 6709 0
-131 -6655 6656 0
-6656 6710 0
-132 -6656 6657 0
-6657 6711 0
-133 -6657 6658 0
-6658 6712 0
-134 -6658 6659 0
-6659 6713 0
-135 -6659 6660 0
-6660 6714 0
-136 -6660 6661 0
-6661 6715 0
-137 -6661 6662 0
-6662 6716 0
-138 -6662 6663 0
-6663 6717 0
-139 -6663 6664 0
-6664 6718 0
-140 -6664 6665 0
-6665 6719 0
-141 -6665 6666 0
-6666 6720 0
-142 -6666 6667 0
-6667 6721 0
-143 -6667 6668 0
-6668 6722 0
-144 -6668 6669 0
-6669 6723 0
-145 -6669 6670 0
-6670 6724 0
-146 -6670 6671 0
-6671 6725 0
-147 -6671 6672 0
-6672 6726 0
-148 -6672 6673 0
-6673 6727 0
-149 -6673 6674 0
-6674 6728 0
-150 -6674 6675 0
-6675 6729 0
-151 -6675 6676 0
-6676 6730 0
-152 -6676 6677 0
-6677 6731 0
-153 -6677 6678 0
-6678 6732 0
-154 -6678 6679 0
-6679 6733 0
-155 -6679 6680 0
-6680 6734 0
-156 -6680 6681 0
-6681 6735 0
-157 -6681 6682 0
-6682 6736 0
-158 -6682 6683 0
-6683 6737 0
-159 -6683 6684 0
-6684 6738 0
-160 -6684 6685 0
-6685 6739 0
-161 -6685 6686 0
-6686 6740 0
-162 -6686 6687 0
-6687 6741 0
-163 -6687 6688 0
-6688 6742 0
-164 -6688 6689 0
-6689 6743 0
-165 -6689 6690 0
-6690 6744 0
-166 -6690 6691 0
-6691 6745 0
-167 -6691 6692 0
-6692 6746 0
-168 -6692 6693 0
-6693 6747 0
-169 -6693 6694 0
-6694 6748 0
-170 -6694 6695 0
-6695 6749 0
-171 -6695 0
-118 6696 0
-6696 6750 0
-119 -6696 6697 0
-6697 6751 0
-120 -6697 6698 0
-6698 6752 0
-121 -6698 6699 0
-6699 6753 0
-122 -6699 6700 0
-6700 6754 0
-123 -6700 6701 0
-6701 6755 0
-124 -6701 6702 0
-6702 6756 0
-125 -6702 6703 0
-6703 6757 0
-126 -6703 6704 0
-6704 6758 0
-127 -6704 6705 0
-6705 6759 0
-128 -6705 6706 0
-6706 6760 0
-129 -6706 6707 0
-6707 6761 0
-130 -6707 6708 0
-6708 6762 0
-131 -6708 6709 0
-6709 6763 0
-132 -6709 6710 0
-6710 6764 0
-133 -6710 6711 0
-6711 6765 0
-134 -6711 6712 0
-6712 6766 0
-135 -6712 6713 0
-6713 6767 0
-136 -6713 6714 0
-6714 6768 0
-137 -6714 6715 0
-6715 6769 0
-138 -6715 6716 0
-6716 6770 0
-139 -6716 6717 0
-6717 6771 0
-140 -6717 6718 0
-6718 6772 0
-141 -6718 6719 0
-6719 6773 0
-142 -6719 6720 0
-6720 6774 0
-143 -6720 6721 0
-6721 6775 0
-144 -6721 6722 0
-6722 6776 0
-145 -6722 6723 0
-6723 6777 0
-146 -6723 6724 0
-6724 6778 0
-147 -6724 6725 0
-6725 6779 0
-148 -6725 6726 0
-6726 6780 0
-149 -6726 6727 0
-6727 6781 0
-150 -6727 6728 0
-6728 6782 0
-151 -6728 6729 0
-6729 6783 0
-152 -6729 6730 0
-6730 6784 0
-153 -6730 6731 0
-6731 6785 0
-154 -6731 6732 0
-6732 6786 0
-155 -6732 6733 0
-6733 6787 0
-156 -6733 6734 0
-6734 6788 0
-157 -6734 6735 0
-6735 6789 0
-158 -6735 6736 0
-6736 6790 0
-159 -6736 6737 0
-6737 6791 0
-160 -6737 6738 0
-6738 6792 0
-161 -6738 6739 0
-6739 6793 0
-162 -6739 6740 0
-6740 6794 0
-163 -6740 6741 0
-6741 6795 0
-164 -6741 6742 0
-6742 6796 0
-165 -6742 6743 0
-6743 6797 0
-166 -6743 6744 0
-6744 6798 0
-167 -6744 6745 0
-6745 6799 0
-168 -6745 6746 0
-6746 6800 0
-169 -6746 6747 0
-6747 6801 0
-170 -6747 6748 0
-6748 6802 0
-171 -6748 6749 0
-6749 6803 0
-172 -6749 0
-119 6750 0
-6750 6804 0
-120 -6750 6751 0
-6751 6805 0
-121 -6751 6752 0
-6752 6806 0
-122 -6752 6753 0
-6753 6807 0
-123 -6753 6754 0
-6754 6808 0
-124 -6754 6755 0
-6755 6809 0
-125 -6755 6756 0
-6756 6810 0
-126 -6756 6757 0
-6757 6811 0
-127 -6757 6758 0
-6758 6812 0
-128 -6758 6759 0
-6759 6813 0
-129 -6759 6760 0
-6760 6814 0
-130 -6760 6761 0
-6761 6815 0
-131 -6761 6762 0
-6762 6816 0
-132 -6762 6763 0
-6763 6817 0
-133 -6763 6764 0
-6764 6818 0
-134 -6764 6765 0
-6765 6819 0
-135 -6765 6766 0
-6766 6820 0
-136 -6766 6767 0
-6767 6821 0
-137 -6767 6768 0
-6768 6822 0
-138 -6768 6769 0
-6769 6823 0
-139 -6769 6770 0
-6770 6824 0
-140 -6770 6771 0
-6771 6825 0
-141 -6771 6772 0
-6772 6826 0
-142 -6772 6773 0
-6773 6827 0
-143 -6773 6774 0
-6774 6828 0
-144 -6774 6775 0
-6775 6829 0
-145 -6775 6776 0
-6776 6830 0
-146 -6776 6777 0
-6777 6831 0
-147 -6777 6778 0
-6778 6832 0
-148 -6778 6779 0
-6779 6833 0
-149 -6779 6780 0
-6780 6834 0
-150 -6780 6781 0
-6781 6835 0
-151 -6781 6782 0
-6782 6836 0
-152 -6782 6783 0
-6783 6837 0
-153 -6783 6784 0
-6784 6838 0
-154 -6784 6785 0
-6785 6839 0
-155 -6785 6786 0
-6786 6840 0
-156 -6786 6787 0
-6787 6841 0
-157 -6787 6788 0
-6788 6842 0
-158 -6788 6789 0
-6789 6843 0
-159 -6789 6790 0
-6790 6844 0
-160 -6790 6791 0
-6791 6845 0
-161 -6791 6792 0
-6792 6846 0
-162 -6792 6793 0
-6793 6847 0
-163 -6793 6794 0
-6794 6848 0
-164 -6794 6795 0
-6795 6849 0
-165 -6795 6796 0
-6796 6850 0
-166 -6796 6797 0
-6797 6851 0
-167 -6797 6798 0
-6798 6852 0
-168 -6798 6799 0
-6799 6853 0
-169 -6799 6800 0
-6800 6854 0
-170 -6800 6801 0
-6801 6855 0
-171 -6801 6802 0
-6802 6856 0
-172 -6802 6803 0
-6803 6857 0
-173 -6803 0
-120 6804 0
-6804 6858 0
-121 -6804 6805 0
-6805 6859 0
-122 -6805 6806 0
-6806 6860 0
-123 -6806 6807 0
-6807 6861 0
-124 -6807 6808 0
-6808 6862 0
-125 -6808 6809 0
-6809 6863 0
-126 -6809 6810 0
-6810 6864 0
-127 -6810 6811 0
-6811 6865 0
-128 -6811 6812 0
-6812 6866 0
-129 -6812 6813 0
-6813 6867 0
-130 -6813 6814 0
-6814 6868 0
-131 -6814 6815 0
-6815 6869 0
-132 -6815 6816 0
-6816 6870 0
-133 -6816 6817 0
-6817 6871 0
-134 -6817 6818 0
-6818 6872 0
-135 -6818 6819 0
-6819 6873 0
-136 -6819 6820 0
-6820 6874 0
-137 -6820 6821 0
-6821 6875 0
-138 -6821 6822 0
-6822 6876 0
-139 -6822 6823 0
-6823 6877 0
-140 -6823 6824 0
-6824 6878 0
-141 -6824 6825 0
-6825 6879 0
-142 -6825 6826 0
-6826 6880 0
-143 -6826 6827 0
-6827 6881 0
-144 -6827 6828 0
-6828 6882 0
-145 -6828 6829 0
-6829 6883 0
-146 -6829 6830 0
-6830 6884 0
-147 -6830 6831 0
-6831 6885 0
-148 -6831 6832 0
-6832 6886 0
-149 -6832 6833 0
-6833 6887 0
-150 -6833 6834 0
-6834 6888 0
-151 -6834 6835 0
-6835 6889 0
-152 -6835 6836 0
-6836 6890 0
-153 -6836 6837 0
-6837 6891 0
-154 -6837 6838 0
-6838 6892 0
-155 -6838 6839 0
-6839 6893 0
-156 -6839 6840 0
-6840 6894 0
-157 -6840 6841 0
-6841 6895 0
-158 -6841 6842 0
-6842 6896 0
-159 -6842 6843 0
-6843 6897 0
-160 -6843 6844 0
-6844 6898 0
-161 -6844 6845 0
-6845 6899 0
-162 -6845 6846 0
-6846 6900 0
-163 -6846 6847 0
-6847 6901 0
-164 -6847 6848 0
-6848 6902 0
-165 -6848 6849 0
-6849 6903 0
-166 -6849 6850 0
-6850 6904 0
-167 -6850 6851 0
-6851 6905 0
-168 -6851 6852 0
-6852 6906 0
-169 -6852 6853 0
-6853 6907 0
-170 -6853 6854 0
-6854 6908 0
-171 -6854 6855 0
-6855 6909 0
-172 -6855 6856 0
-6856 6910 0
-173 -6856 6857 0
-6857 6911 0
-174 -6857 0
-121 6858 0
-6858 6912 0
-122 -6858 6859 0
-6859 6913 0
-123 -6859 6860 0
-6860 6914 0
-124 -6860 6861 0
-6861 6915 0
-125 -6861 6862 0
-6862 6916 0
-126 -6862 6863 0
-6863 6917 0
-127 -6863 6864 0
-6864 6918 0
-128 -6864 6865 0
-6865 6919 0
-129 -6865 6866 0
-6866 6920 0
-130 -6866 6867 0
-6867 6921 0
-131 -6867 6868 0
-6868 6922 0
-132 -6868 6869 0
-6869 6923 0
-133 -6869 6870 0
-6870 6924 0
-134 -6870 6871 0
-6871 6925 0
-135 -6871 6872 0
-6872 6926 0
-136 -6872 6873 0
-6873 6927 0
-137 -6873 6874 0
-6874 6928 0
-138 -6874 6875 0
-6875 6929 0
-139 -6875 6876 0
-6876 6930 0
-140 -6876 6877 0
-6877 6931 0
-141 -6877 6878 0
-6878 6932 0
-142 -6878 6879 0
-6879 6933 0
-143 -6879 6880 0
-6880 6934 0
-144 -6880 6881 0
-6881 6935 0
-145 -6881 6882 0
-6882 6936 0
-146 -6882 6883 0
-6883 6937 0
-147 -6883 6884 0
-6884 6938 0
-148 -6884 6885 0
-6885 6939 0
-149 -6885 6886 0
-6886 6940 0
-150 -6886 6887 0
-6887 6941 0
-151 -6887 6888 0
-6888 6942 0
-152 -6888 6889 0
-6889 6943 0
-153 -6889 6890 0
-6890 6944 0
-154 -6890 6891 0
-6891 6945 0
-155 -6891 6892 0
-6892 6946 0
-156 -6892 6893 0
-6893 6947 0
-157 -6893 6894 0
-6894 6948 0
-158 -6894 6895 0
-6895 6949 0
-159 -6895 6896 0
-6896 6950 0
-160 -6896 6897 0
-6897 6951 0
-161 -6897 6898 0
-6898 6952 0
-162 -6898 6899 0
-6899 6953 0
-163 -6899 6900 0
-6900 6954 0
-164 -6900 6901 0
-6901 6955 0
-165 -6901 6902 0
-6902 6956 0
-166 -6902 6903 0
-6903 6957 0
-167 -6903 6904 0
-6904 6958 0
-168 -6904 6905 0
-6905 6959 0
-169 -6905 6906 0
-6906 6960 0
-170 -6906 6907 0
-6907 6961 0
-171 -6907 6908 0
-6908 6962 0
-172 -6908 6909 0
-6909 6963 0
-173 -6909 6910 0
-6910 6964 0
-174 -6910 6911 0
-6911 6965 0
-175 -6911 0
-122 6912 0
-6912 6966 0
-123 -6912 6913 0
-6913 6967 0
-124 -6913 6914 0
-6914 6968 0
-125 -6914 6915 0
-6915 6969 0
-126 -6915 6916 0
-6916 6970 0
-127 -6916 6917 0
-6917 6971 0
-128 -6917 6918 0
-6918 6972 0
-129 -6918 6919 0
-6919 6973 0
-130 -6919 6920 0
-6920 6974 0
-131 -6920 6921 0
-6921 6975 0
-132 -6921 6922 0
-6922 6976 0
-133 -6922 6923 0
-6923 6977 0
-134 -6923 6924 0
-6924 6978 0
-135 -6924 6925 0
-6925 6979 0
-136 -6925 6926 0
-6926 6980 0
-137 -6926 6927 0
-6927 6981 0
-138 -6927 6928 0
-6928 6982 0
-139 -6928 6929 0
-6929 6983 0
-140 -6929 6930 0
-6930 6984 0
-141 -6930 6931 0
-6931 6985 0
-142 -6931 6932 0
-6932 6986 0
-143 -6932 6933 0
-6933 6987 0
-144 -6933 6934 0
-6934 6988 0
-145 -6934 6935 0
-6935 6989 0
-146 -6935 6936 0
-6936 6990 0
-147 -6936 6937 0
-6937 6991 0
-148 -6937 6938 0
-6938 6992 0
-149 -6938 6939 0
-6939 6993 0
-150 -6939 6940 0
-6940 6994 0
-151 -6940 6941 0
-6941 6995 0
-152 -6941 6942 0
-6942 6996 0
-153 -6942 6943 0
-6943 6997 0
-154 -6943 6944 0
-6944 6998 0
-155 -6944 6945 0
-6945 6999 0
-156 -6945 6946 0
-6946 7000 0
-157 -6946 6947 0
-6947 7001 0
-158 -6947 6948 0
-6948 7002 0
-159 -6948 6949 0
-6949 7003 0
-160 -6949 6950 0
-6950 7004 0
-161 -6950 6951 0
-6951 7005 0
-162 -6951 6952 0
-6952 7006 0
-163 -6952 6953 0
-6953 7007 0
-164 -6953 6954 0
-6954 7008 0
-165 -6954 6955 0
-6955 7009 0
-166 -6955 6956 0
-6956 7010 0
-167 -6956 6957 0
-6957 7011 0
-168 -6957 6958 0
-6958 7012 0
-169 -6958 6959 0
-6959 7013 0
-170 -6959 6960 0
-6960 7014 0
-171 -6960 6961 0
-6961 7015 0
-172 -6961 6962 0
-6962 7016 0
-173 -6962 6963 0
-6963 7017 0
-174 -6963 6964 0
-6964 7018 0
-175 -6964 6965 0
-6965 7019 0
-176 -6965 0
-123 6966 0
-6966 7020 0
-124 -6966 6967 0
-6967 7021 0
-125 -6967 6968 0
-6968 7022 0
-126 -6968 6969 0
-6969 7023 0
-127 -6969 6970 0
-6970 7024 0
-128 -6970 6971 0
-6971 7025 0
-129 -6971 6972 0
-6972 7026 0
-130 -6972 6973 0
-6973 7027 0
-131 -6973 6974 0
-6974 7028 0
-132 -6974 6975 0
-6975 7029 0
-133 -6975 6976 0
-6976 7030 0
-134 -6976 6977 0
-6977 7031 0
-135 -6977 6978 0
-6978 7032 0
-136 -6978 6979 0
-6979 7033 0
-137 -6979 6980 0
-6980 7034 0
-138 -6980 6981 0
-6981 7035 0
-139 -6981 6982 0
-6982 7036 0
-140 -6982 6983 0
-6983 7037 0
-141 -6983 6984 0
-6984 7038 0
-142 -6984 6985 0
-6985 7039 0
-143 -6985 6986 0
-6986 7040 0
-144 -6986 6987 0
-6987 7041 0
-145 -6987 6988 0
-6988 7042 0
-146 -6988 6989 0
-6989 7043 0
-147 -6989 6990 0
-6990 7044 0
-148 -6990 6991 0
-6991 7045 0
-149 -6991 6992 0
-6992 7046 0
-150 -6992 6993 0
-6993 7047 0
-151 -6993 6994 0
-6994 7048 0
-152 -6994 6995 0
-6995 7049 0
-153 -6995 6996 0
-6996 7050 0
-154 -6996 6997 0
-6997 7051 0
-155 -6997 6998 0
-6998 7052 0
-156 -6998 6999 0
-6999 7053 0
-157 -6999 7000 0
-7000 7054 0
-158 -7000 7001 0
-7001 7055 0
-159 -7001 7002 0
-7002 7056 0
-160 -7002 7003 0
-7003 7057 0
-161 -7003 7004 0
-7004 7058 0
-162 -7004 7005 0
-7005 7059 0
-163 -7005 7006 0
-7006 7060 0
-164 -7006 7007 0
-7007 7061 0
-165 -7007 7008 0
-7008 7062 0
-166 -7008 7009 0
-7009 7063 0
-167 -7009 7010 0
-7010 7064 0
-168 -7010 7011 0
-7011 7065 0
-169 -7011 7012 0
-7012 7066 0
-170 -7012 7013 0
-7013 7067 0
-171 -7013 7014 0
-7014 7068 0
-172 -7014 7015 0
-7015 7069 0
-173 -7015 7016 0
-7016 7070 0
-174 -7016 7017 0
-7017 7071 0
-175 -7017 7018 0
-7018 7072 0
-176 -7018 7019 0
-7019 7073 0
-177 -7019 0
-124 7020 0
-7020 7074 0
-125 -7020 7021 0
-7021 7075 0
-126 -7021 7022 0
-7022 7076 0
-127 -7022 7023 0
-7023 7077 0
-128 -7023 7024 0
-7024 7078 0
-129 -7024 7025 0
-7025 7079 0
-130 -7025 7026 0
-7026 7080 0
-131 -7026 7027 0
-7027 7081 0
-132 -7027 7028 0
-7028 7082 0
-133 -7028 7029 0
-7029 7083 0
-134 -7029 7030 0
-7030 7084 0
-135 -7030 7031 0
-7031 7085 0
-136 -7031 7032 0
-7032 7086 0
-137 -7032 7033 0
-7033 7087 0
-138 -7033 7034 0
-7034 7088 0
-139 -7034 7035 0
-7035 7089 0
-140 -7035 7036 0
-7036 7090 0
-141 -7036 7037 0
-7037 7091 0
-142 -7037 7038 0
-7038 7092 0
-143 -7038 7039 0
-7039 7093 0
-144 -7039 7040 0
-7040 7094 0
-145 -7040 7041 0
-7041 7095 0
-146 -7041 7042 0
-7042 7096 0
-147 -7042 7043 0
-7043 7097 0
-148 -7043 7044 0
-7044 7098 0
-149 -7044 7045 0
-7045 7099 0
-150 -7045 7046 0
-7046 7100 0
-151 -7046 7047 0
-7047 7101 0
-152 -7047 7048 0
-7048 7102 0
-153 -7048 7049 0
-7049 7103 0
-154 -7049 7050 0
-7050 7104 0
-155 -7050 7051 0
-7051 7105 0
-156 -7051 7052 0
-7052 7106 0
-157 -7052 7053 0
-7053 7107 0
-158 -7053 7054 0
-7054 7108 0
-159 -7054 7055 0
-7055 7109 0
-160 -7055 7056 0
-7056 7110 0
-161 -7056 7057 0
-7057 7111 0
-162 -7057 7058 0
-7058 7112 0
-163 -7058 7059 0
-7059 7113 0
-164 -7059 7060 0
-7060 7114 0
-165 -7060 7061 0
-7061 7115 0
-166 -7061 7062 0
-7062 7116 0
-167 -7062 7063 0
-7063 7117 0
-168 -7063 7064 0
-7064 7118 0
-169 -7064 7065 0
-7065 7119 0
-170 -7065 7066 0
-7066 7120 0
-171 -7066 7067 0
-7067 7121 0
-172 -7067 7068 0
-7068 7122 0
-173 -7068 7069 0
-7069 7123 0
-174 -7069 7070 0
-7070 7124 0
-175 -7070 7071 0
-7071 7125 0
-176 -7071 7072 0
-7072 7126 0
-177 -7072 7073 0
-7073 7127 0
-178 -7073 0
-125 7074 0
-7074 7128 0
-126 -7074 7075 0
-7075 7129 0
-127 -7075 7076 0
-7076 7130 0
-128 -7076 7077 0
-7077 7131 0
-129 -7077 7078 0
-7078 7132 0
-130 -7078 7079 0
-7079 7133 0
-131 -7079 7080 0
-7080 7134 0
-132 -7080 7081 0
-7081 7135 0
-133 -7081 7082 0
-7082 7136 0
-134 -7082 7083 0
-7083 7137 0
-135 -7083 7084 0
-7084 7138 0
-136 -7084 7085 0
-7085 7139 0
-137 -7085 7086 0
-7086 7140 0
-138 -7086 7087 0
-7087 7141 0
-139 -7087 7088 0
-7088 7142 0
-140 -7088 7089 0
-7089 7143 0
-141 -7089 7090 0
-7090 7144 0
-142 -7090 7091 0
-7091 7145 0
-143 -7091 7092 0
-7092 7146 0
-144 -7092 7093 0
-7093 7147 0
-145 -7093 7094 0
-7094 7148 0
-146 -7094 7095 0
-7095 7149 0
-147 -7095 7096 0
-7096 7150 0
-148 -7096 7097 0
-7097 7151 0
-149 -7097 7098 0
-7098 7152 0
-150 -7098 7099 0
-7099 7153 0
-151 -7099 7100 0
-7100 7154 0
-152 -7100 7101 0
-7101 7155 0
-153 -7101 7102 0
-7102 7156 0
-154 -7102 7103 0
-7103 7157 0
-155 -7103 7104 0
-7104 7158 0
-156 -7104 7105 0
-7105 7159 0
-157 -7105 7106 0
-7106 7160 0
-158 -7106 7107 0
-7107 7161 0
-159 -7107 7108 0
-7108 7162 0
-160 -7108 7109 0
-7109 7163 0
-161 -7109 7110 0
-7110 7164 0
-162 -7110 7111 0
-7111 7165 0
-163 -7111 7112 0
-7112 7166 0
-164 -7112 7113 0
-7113 7167 0
-165 -7113 7114 0
-7114 7168 0
-166 -7114 7115 0
-7115 7169 0
-167 -7115 7116 0
-7116 7170 0
-168 -7116 7117 0
-7117 7171 0
-169 -7117 7118 0
-7118 7172 0
-170 -7118 7119 0
-7119 7173 0
-171 -7119 7120 0
-7120 7174 0
-172 -7120 7121 0
-7121 7175 0
-173 -7121 7122 0
-7122 7176 0
-174 -7122 7123 0
-7123 7177 0
-175 -7123 7124 0
-7124 7178 0
-176 -7124 7125 0
-7125 7179 0
-177 -7125 7126 0
-7126 7180 0
-178 -7126 7127 0
-7127 7181 0
-179 -7127 0
-126 7128 0
-7128 7182 0
-127 -7128 7129 0
-7129 7183 0
-128 -7129 7130 0
-7130 7184 0
-129 -7130 7131 0
-7131 7185 0
-130 -7131 7132 0
-7132 7186 0
-131 -7132 7133 0
-7133 7187 0
-132 -7133 7134 0
-7134 7188 0
-133 -7134 7135 0
-7135 7189 0
-134 -7135 7136 0
-7136 7190 0
-135 -7136 7137 0
-7137 7191 0
-136 -7137 7138 0
-7138 7192 0
-137 -7138 7139 0
-7139 7193 0
-138 -7139 7140 0
-7140 7194 0
-139 -7140 7141 0
-7141 7195 0
-140 -7141 7142 0
-7142 7196 0
-141 -7142 7143 0
-7143 7197 0
-142 -7143 7144 0
-7144 7198 0
-143 -7144 7145 0
-7145 7199 0
-144 -7145 7146 0
-7146 7200 0
-145 -7146 7147 0
-7147 7201 0
-146 -7147 7148 0
-7148 7202 0
-147 -7148 7149 0
-7149 7203 0
-148 -7149 7150 0
-7150 7204 0
-149 -7150 7151 0
-7151 7205 0
-150 -7151 7152 0
-7152 7206 0
-151 -7152 7153 0
-7153 7207 0
-152 -7153 7154 0
-7154 7208 0
-153 -7154 7155 0
-7155 7209 0
-154 -7155 7156 0
-7156 7210 0
-155 -7156 7157 0
-7157 7211 0
-156 -7157 7158 0
-7158 7212 0
-157 -7158 7159 0
-7159 7213 0
-158 -7159 7160 0
-7160 7214 0
-159 -7160 7161 0
-7161 7215 0
-160 -7161 7162 0
-7162 7216 0
-161 -7162 7163 0
-7163 7217 0
-162 -7163 7164 0
-7164 7218 0
-163 -7164 7165 0
-7165 7219 0
-164 -7165 7166 0
-7166 7220 0
-165 -7166 7167 0
-7167 7221 0
-166 -7167 7168 0
-7168 7222 0
-167 -7168 7169 0
-7169 7223 0
-168 -7169 7170 0
-7170 7224 0
-169 -7170 7171 0
-7171 7225 0
-170 -7171 7172 0
-7172 7226 0
-171 -7172 7173 0
-7173 7227 0
-172 -7173 7174 0
-7174 7228 0
-173 -7174 7175 0
-7175 7229 0
-174 -7175 7176 0
-7176 7230 0
-175 -7176 7177 0
-7177 7231 0
-176 -7177 7178 0
-7178 7232 0
-177 -7178 7179 0
-7179 7233 0
-178 -7179 7180 0
-7180 7234 0
-179 -7180 7181 0
-7181 7235 0
-180 -7181 0
-127 7182 0
-7182 7236 0
-128 -7182 7183 0
-7183 7237 0
-129 -7183 7184 0
-7184 7238 0
-130 -7184 7185 0
-7185 7239 0
-131 -7185 7186 0
-7186 7240 0
-132 -7186 7187 0
-7187 7241 0
-133 -7187 7188 0
-7188 7242 0
-134 -7188 7189 0
-7189 7243 0
-135 -7189 7190 0
-7190 7244 0
-136 -7190 7191 0
-7191 7245 0
-137 -7191 7192 0
-7192 7246 0
-138 -7192 7193 0
-7193 7247 0
-139 -7193 7194 0
-7194 7248 0
-140 -7194 7195 0
-7195 7249 0
-141 -7195 7196 0
-7196 7250 0
-142 -7196 7197 0
-7197 7251 0
-143 -7197 7198 0
-7198 7252 0
-144 -7198 7199 0
-7199 7253 0
-145 -7199 7200 0
-7200 7254 0
-146 -7200 7201 0
-7201 7255 0
-147 -7201 7202 0
-7202 7256 0
-148 -7202 7203 0
-7203 7257 0
-149 -7203 7204 0
-7204 7258 0
-150 -7204 7205 0
-7205 7259 0
-151 -7205 7206 0
-7206 7260 0
-152 -7206 7207 0
-7207 7261 0
-153 -7207 7208 0
-7208 7262 0
-154 -7208 7209 0
-7209 7263 0
-155 -7209 7210 0
-7210 7264 0
-156 -7210 7211 0
-7211 7265 0
-157 -7211 7212 0
-7212 7266 0
-158 -7212 7213 0
-7213 7267 0
-159 -7213 7214 0
-7214 7268 0
-160 -7214 7215 0
-7215 7269 0
-161 -7215 7216 0
-7216 7270 0
-162 -7216 7217 0
-7217 7271 0
-163 -7217 7218 0
-7218 7272 0
-164 -7218 7219 0
-7219 7273 0
-165 -7219 7220 0
-7220 7274 0
-166 -7220 7221 0
-7221 7275 0
-167 -7221 7222 0
-7222 7276 0
-168 -7222 7223 0
-7223 7277 0
-169 -7223 7224 0
-7224 7278 0
-170 -7224 7225 0
-7225 7279 0
-171 -7225 7226 0
-7226 7280 0
-172 -7226 7227 0
-7227 7281 0
-173 -7227 7228 0
-7228 7282 0
-174 -7228 7229 0
-7229 7283 0
-175 -7229 7230 0
-7230 7284 0
-176 -7230 7231 0
-7231 7285 0
-177 -7231 7232 0
-7232 7286 0
-178 -7232 7233 0
-7233 7287 0
-179 -7233 7234 0
-7234 7288 0
-180 -7234 7235 0
-7235 7289 0
-181 -7235 0
-128 7236 0
-7236 7290 0
-129 -7236 7237 0
-7237 7291 0
-130 -7237 7238 0
-7238 7292 0
-131 -7238 7239 0
-7239 7293 0
-132 -7239 7240 0
-7240 7294 0
-133 -7240 7241 0
-7241 7295 0
-134 -7241 7242 0
-7242 7296 0
-135 -7242 7243 0
-7243 7297 0
-136 -7243 7244 0
-7244 7298 0
-137 -7244 7245 0
-7245 7299 0
-138 -7245 7246 0
-7246 7300 0
-139 -7246 7247 0
-7247 7301 0
-140 -7247 7248 0
-7248 7302 0
-141 -7248 7249 0
-7249 7303 0
-142 -7249 7250 0
-7250 7304 0
-143 -7250 7251 0
-7251 7305 0
-144 -7251 7252 0
-7252 7306 0
-145 -7252 7253 0
-7253 7307 0
-146 -7253 7254 0
-7254 7308 0
-147 -7254 7255 0
-7255 7309 0
-148 -7255 7256 0
-7256 7310 0
-149 -7256 7257 0
-7257 7311 0
-150 -7257 7258 0
-7258 7312 0
-151 -7258 7259 0
-7259 7313 0
-152 -7259 7260 0
-7260 7314 0
-153 -7260 7261 0
-7261 7315 0
-154 -7261 7262 0
-7262 7316 0
-155 -7262 7263 0
-7263 7317 0
-156 -7263 7264 0
-7264 7318 0
-157 -7264 7265 0
-7265 7319 0
-158 -7265 7266 0
-7266 7320 0
-159 -7266 7267 0
-7267 7321 0
-160 -7267 7268 0
-7268 7322 0
-161 -7268 7269 0
-7269 7323 0
-162 -7269 7270 0
-7270 7324 0
-163 -7270 7271 0
-7271 7325 0
-164 -7271 7272 0
-7272 7326 0
-165 -7272 7273 0
-7273 7327 0
-166 -7273 7274 0
-7274 7328 0
-167 -7274 7275 0
-7275 7329 0
-168 -7275 7276 0
-7276 7330 0
-169 -7276 7277 0
-7277 7331 0
-170 -7277 7278 0
-7278 7332 0
-171 -7278 7279 0
-7279 7333 0
-172 -7279 7280 0
-7280 7334 0
-173 -7280 7281 0
-7281 7335 0
-174 -7281 7282 0
-7282 7336 0
-175 -7282 7283 0
-7283 7337 0
-176 -7283 7284 0
-7284 7338 0
-177 -7284 7285 0
-7285 7339 0
-178 -7285 7286 0
-7286 7340 0
-179 -7286 7287 0
-7287 7341 0
-180 -7287 7288 0
-7288 7342 0
-181 -7288 7289 0
-7289 7343 0
-182 -7289 0
-129 7290 0
-7290 7344 0
-130 -7290 7291 0
-7291 7345 0
-131 -7291 7292 0
-7292 7346 0
-132 -7292 7293 0
-7293 7347 0
-133 -7293 7294 0
-7294 7348 0
-134 -7294 7295 0
-7295 7349 0
-135 -7295 7296 0
-7296 7350 0
-136 -7296 7297 0
-7297 7351 0
-137 -7297 7298 0
-7298 7352 0
-138 -7298 7299 0
-7299 7353 0
-139 -7299 7300 0
-7300 7354 0
-140 -7300 7301 0
-7301 7355 0
-141 -7301 7302 0
-7302 7356 0
-142 -7302 7303 0
-7303 7357 0
-143 -7303 7304 0
-7304 7358 0
-144 -7304 7305 0
-7305 7359 0
-145 -7305 7306 0
-7306 7360 0
-146 -7306 7307 0
-7307 7361 0
-147 -7307 7308 0
-7308 7362 0
-148 -7308 7309 0
-7309 7363 0
-149 -7309 7310 0
-7310 7364 0
-150 -7310 7311 0
-7311 7365 0
-151 -7311 7312 0
-7312 7366 0
-152 -7312 7313 0
-7313 7367 0
-153 -7313 7314 0
-7314 7368 0
-154 -7314 7315 0
-7315 7369 0
-155 -7315 7316 0
-7316 7370 0
-156 -7316 7317 0
-7317 7371 0
-157 -7317 7318 0
-7318 7372 0
-158 -7318 7319 0
-7319 7373 0
-159 -7319 7320 0
-7320 7374 0
-160 -7320 7321 0
-7321 7375 0
-161 -7321 7322 0
-7322 7376 0
-162 -7322 7323 0
-7323 7377 0
-163 -7323 7324 0
-7324 7378 0
-164 -7324 7325 0
-7325 7379 0
-165 -7325 7326 0
-7326 7380 0
-166 -7326 7327 0
-7327 7381 0
-167 -7327 7328 0
-7328 7382 0
-168 -7328 7329 0
-7329 7383 0
-169 -7329 7330 0
-7330 7384 0
-170 -7330 7331 0
-7331 7385 0
-171 -7331 7332 0
-7332 7386 0
-172 -7332 7333 0
-7333 7387 0
-173 -7333 7334 0
-7334 7388 0
-174 -7334 7335 0
-7335 7389 0
-175 -7335 7336 0
-7336 7390 0
-176 -7336 7337 0
-7337 7391 0
-177 -7337 7338 0
-7338 7392 0
-178 -7338 7339 0
-7339 7393 0
-179 -7339 7340 0
-7340 7394 0
-180 -7340 7341 0
-7341 7395 0
-181 -7341 7342 0
-7342 7396 0
-182 -7342 7343 0
-7343 7397 0
-183 -7343 0
-130 7344 0
-7344 7398 0
-131 -7344 7345 0
-7345 7399 0
-132 -7345 7346 0
-7346 7400 0
-133 -7346 7347 0
-7347 7401 0
-134 -7347 7348 0
-7348 7402 0
-135 -7348 7349 0
-7349 7403 0
-136 -7349 7350 0
-7350 7404 0
-137 -7350 7351 0
-7351 7405 0
-138 -7351 7352 0
-7352 7406 0
-139 -7352 7353 0
-7353 7407 0
-140 -7353 7354 0
-7354 7408 0
-141 -7354 7355 0
-7355 7409 0
-142 -7355 7356 0
-7356 7410 0
-143 -7356 7357 0
-7357 7411 0
-144 -7357 7358 0
-7358 7412 0
-145 -7358 7359 0
-7359 7413 0
-146 -7359 7360 0
-7360 7414 0
-147 -7360 7361 0
-7361 7415 0
-148 -7361 7362 0
-7362 7416 0
-149 -7362 7363 0
-7363 7417 0
-150 -7363 7364 0
-7364 7418 0
-151 -7364 7365 0
-7365 7419 0
-152 -7365 7366 0
-7366 7420 0
-153 -7366 7367 0
-7367 7421 0
-154 -7367 7368 0
-7368 7422 0
-155 -7368 7369 0
-7369 7423 0
-156 -7369 7370 0
-7370 7424 0
-157 -7370 7371 0
-7371 7425 0
-158 -7371 7372 0
-7372 7426 0
-159 -7372 7373 0
-7373 7427 0
-160 -7373 7374 0
-7374 7428 0
-161 -7374 7375 0
-7375 7429 0
-162 -7375 7376 0
-7376 7430 0
-163 -7376 7377 0
-7377 7431 0
-164 -7377 7378 0
-7378 7432 0
-165 -7378 7379 0
-7379 7433 0
-166 -7379 7380 0
-7380 7434 0
-167 -7380 7381 0
-7381 7435 0
-168 -7381 7382 0
-7382 7436 0
-169 -7382 7383 0
-7383 7437 0
-170 -7383 7384 0
-7384 7438 0
-171 -7384 7385 0
-7385 7439 0
-172 -7385 7386 0
-7386 7440 0
-173 -7386 7387 0
-7387 7441 0
-174 -7387 7388 0
-7388 7442 0
-175 -7388 7389 0
-7389 7443 0
-176 -7389 7390 0
-7390 7444 0
-177 -7390 7391 0
-7391 7445 0
-178 -7391 7392 0
-7392 7446 0
-179 -7392 7393 0
-7393 7447 0
-180 -7393 7394 0
-7394 7448 0
-181 -7394 7395 0
-7395 7449 0
-182 -7395 7396 0
-7396 7450 0
-183 -7396 7397 0
-7397 7451 0
-184 -7397 0
-131 7398 0
-7398 7452 0
-132 -7398 7399 0
-7399 7453 0
-133 -7399 7400 0
-7400 7454 0
-134 -7400 7401 0
-7401 7455 0
-135 -7401 7402 0
-7402 7456 0
-136 -7402 7403 0
-7403 7457 0
-137 -7403 7404 0
-7404 7458 0
-138 -7404 7405 0
-7405 7459 0
-139 -7405 7406 0
-7406 7460 0
-140 -7406 7407 0
-7407 7461 0
-141 -7407 7408 0
-7408 7462 0
-142 -7408 7409 0
-7409 7463 0
-143 -7409 7410 0
-7410 7464 0
-144 -7410 7411 0
-7411 7465 0
-145 -7411 7412 0
-7412 7466 0
-146 -7412 7413 0
-7413 7467 0
-147 -7413 7414 0
-7414 7468 0
-148 -7414 7415 0
-7415 7469 0
-149 -7415 7416 0
-7416 7470 0
-150 -7416 7417 0
-7417 7471 0
-151 -7417 7418 0
-7418 7472 0
-152 -7418 7419 0
-7419 7473 0
-153 -7419 7420 0
-7420 7474 0
-154 -7420 7421 0
-7421 7475 0
-155 -7421 7422 0
-7422 7476 0
-156 -7422 7423 0
-7423 7477 0
-157 -7423 7424 0
-7424 7478 0
-158 -7424 7425 0
-7425 7479 0
-159 -7425 7426 0
-7426 7480 0
-160 -7426 7427 0
-7427 7481 0
-161 -7427 7428 0
-7428 7482 0
-162 -7428 7429 0
-7429 7483 0
-163 -7429 7430 0
-7430 7484 0
-164 -7430 7431 0
-7431 7485 0
-165 -7431 7432 0
-7432 7486 0
-166 -7432 7433 0
-7433 7487 0
-167 -7433 7434 0
-7434 7488 0
-168 -7434 7435 0
-7435 7489 0
-169 -7435 7436 0
-7436 7490 0
-170 -7436 7437 0
-7437 7491 0
-171 -7437 7438 0
-7438 7492 0
-172 -7438 7439 0
-7439 7493 0
-173 -7439 7440 0
-7440 7494 0
-174 -7440 7441 0
-7441 7495 0
-175 -7441 7442 0
-7442 7496 0
-176 -7442 7443 0
-7443 7497 0
-177 -7443 7444 0
-7444 7498 0
-178 -7444 7445 0
-7445 7499 0
-179 -7445 7446 0
-7446 7500 0
-180 -7446 7447 0
-7447 7501 0
-181 -7447 7448 0
-7448 7502 0
-182 -7448 7449 0
-7449 7503 0
-183 -7449 7450 0
-7450 7504 0
-184 -7450 7451 0
-7451 7505 0
-185 -7451 0
-132 7452 0
-7452 7506 0
-133 -7452 7453 0
-7453 7507 0
-134 -7453 7454 0
-7454 7508 0
-135 -7454 7455 0
-7455 7509 0
-136 -7455 7456 0
-7456 7510 0
-137 -7456 7457 0
-7457 7511 0
-138 -7457 7458 0
-7458 7512 0
-139 -7458 7459 0
-7459 7513 0
-140 -7459 7460 0
-7460 7514 0
-141 -7460 7461 0
-7461 7515 0
-142 -7461 7462 0
-7462 7516 0
-143 -7462 7463 0
-7463 7517 0
-144 -7463 7464 0
-7464 7518 0
-145 -7464 7465 0
-7465 7519 0
-146 -7465 7466 0
-7466 7520 0
-147 -7466 7467 0
-7467 7521 0
-148 -7467 7468 0
-7468 7522 0
-149 -7468 7469 0
-7469 7523 0
-150 -7469 7470 0
-7470 7524 0
-151 -7470 7471 0
-7471 7525 0
-152 -7471 7472 0
-7472 7526 0
-153 -7472 7473 0
-7473 7527 0
-154 -7473 7474 0
-7474 7528 0
-155 -7474 7475 0
-7475 7529 0
-156 -7475 7476 0
-7476 7530 0
-157 -7476 7477 0
-7477 7531 0
-158 -7477 7478 0
-7478 7532 0
-159 -7478 7479 0
-7479 7533 0
-160 -7479 7480 0
-7480 7534 0
-161 -7480 7481 0
-7481 7535 0
-162 -7481 7482 0
-7482 7536 0
-163 -7482 7483 0
-7483 7537 0
-164 -7483 7484 0
-7484 7538 0
-165 -7484 7485 0
-7485 7539 0
-166 -7485 7486 0
-7486 7540 0
-167 -7486 7487 0
-7487 7541 0
-168 -7487 7488 0
-7488 7542 0
-169 -7488 7489 0
-7489 7543 0
-170 -7489 7490 0
-7490 7544 0
-171 -7490 7491 0
-7491 7545 0
-172 -7491 7492 0
-7492 7546 0
-173 -7492 7493 0
-7493 7547 0
-174 -7493 7494 0
-7494 7548 0
-175 -7494 7495 0
-7495 7549 0
-176 -7495 7496 0
-7496 7550 0
-177 -7496 7497 0
-7497 7551 0
-178 -7497 7498 0
-7498 7552 0
-179 -7498 7499 0
-7499 7553 0
-180 -7499 7500 0
-7500 7554 0
-181 -7500 7501 0
-7501 7555 0
-182 -7501 7502 0
-7502 7556 0
-183 -7502 7503 0
-7503 7557 0
-184 -7503 7504 0
-7504 7558 0
-185 -7504 7505 0
-7505 7559 0
-186 -7505 0
-133 7506 0
-7506 7560 0
-134 -7506 7507 0
-7507 7561 0
-135 -7507 7508 0
-7508 7562 0
-136 -7508 7509 0
-7509 7563 0
-137 -7509 7510 0
-7510 7564 0
-138 -7510 7511 0
-7511 7565 0
-139 -7511 7512 0
-7512 7566 0
-140 -7512 7513 0
-7513 7567 0
-141 -7513 7514 0
-7514 7568 0
-142 -7514 7515 0
-7515 7569 0
-143 -7515 7516 0
-7516 7570 0
-144 -7516 7517 0
-7517 7571 0
-145 -7517 7518 0
-7518 7572 0
-146 -7518 7519 0
-7519 7573 0
-147 -7519 7520 0
-7520 7574 0
-148 -7520 7521 0
-7521 7575 0
-149 -7521 7522 0
-7522 7576 0
-150 -7522 7523 0
-7523 7577 0
-151 -7523 7524 0
-7524 7578 0
-152 -7524 7525 0
-7525 7579 0
-153 -7525 7526 0
-7526 7580 0
-154 -7526 7527 0
-7527 7581 0
-155 -7527 7528 0
-7528 7582 0
-156 -7528 7529 0
-7529 7583 0
-157 -7529 7530 0
-7530 7584 0
-158 -7530 7531 0
-7531 7585 0
-159 -7531 7532 0
-7532 7586 0
-160 -7532 7533 0
-7533 7587 0
-161 -7533 7534 0
-7534 7588 0
-162 -7534 7535 0
-7535 7589 0
-163 -7535 7536 0
-7536 7590 0
-164 -7536 7537 0
-7537 7591 0
-165 -7537 7538 0
-7538 7592 0
-166 -7538 7539 0
-7539 7593 0
-167 -7539 7540 0
-7540 7594 0
-168 -7540 7541 0
-7541 7595 0
-169 -7541 7542 0
-7542 7596 0
-170 -7542 7543 0
-7543 7597 0
-171 -7543 7544 0
-7544 7598 0
-172 -7544 7545 0
-7545 7599 0
-173 -7545 7546 0
-7546 7600 0
-174 -7546 7547 0
-7547 7601 0
-175 -7547 7548 0
-7548 7602 0
-176 -7548 7549 0
-7549 7603 0
-177 -7549 7550 0
-7550 7604 0
-178 -7550 7551 0
-7551 7605 0
-179 -7551 7552 0
-7552 7606 0
-180 -7552 7553 0
-7553 7607 0
-181 -7553 7554 0
-7554 7608 0
-182 -7554 7555 0
-7555 7609 0
-183 -7555 7556 0
-7556 7610 0
-184 -7556 7557 0
-7557 7611 0
-185 -7557 7558 0
-7558 7612 0
-186 -7558 7559 0
-7559 7613 0
-187 -7559 0
-134 7560 0
-7560 7614 0
-135 -7560 7561 0
-7561 7615 0
-136 -7561 7562 0
-7562 7616 0
-137 -7562 7563 0
-7563 7617 0
-138 -7563 7564 0
-7564 7618 0
-139 -7564 7565 0
-7565 7619 0
-140 -7565 7566 0
-7566 7620 0
-141 -7566 7567 0
-7567 7621 0
-142 -7567 7568 0
-7568 7622 0
-143 -7568 7569 0
-7569 7623 0
-144 -7569 7570 0
-7570 7624 0
-145 -7570 7571 0
-7571 7625 0
-146 -7571 7572 0
-7572 7626 0
-147 -7572 7573 0
-7573 7627 0
-148 -7573 7574 0
-7574 7628 0
-149 -7574 7575 0
-7575 7629 0
-150 -7575 7576 0
-7576 7630 0
-151 -7576 7577 0
-7577 7631 0
-152 -7577 7578 0
-7578 7632 0
-153 -7578 7579 0
-7579 7633 0
-154 -7579 7580 0
-7580 7634 0
-155 -7580 7581 0
-7581 7635 0
-156 -7581 7582 0
-7582 7636 0
-157 -7582 7583 0
-7583 7637 0
-158 -7583 7584 0
-7584 7638 0
-159 -7584 7585 0
-7585 7639 0
-160 -7585 7586 0
-7586 7640 0
-161 -7586 7587 0
-7587 7641 0
-162 -7587 7588 0
-7588 7642 0
-163 -7588 7589 0
-7589 7643 0
-164 -7589 7590 0
-7590 7644 0
-165 -7590 7591 0
-7591 7645 0
-166 -7591 7592 0
-7592 7646 0
-167 -7592 7593 0
-7593 7647 0
-168 -7593 7594 0
-7594 7648 0
-169 -7594 7595 0
-7595 7649 0
-170 -7595 7596 0
-7596 7650 0
-171 -7596 7597 0
-7597 7651 0
-172 -7597 7598 0
-7598 7652 0
-173 -7598 7599 0
-7599 7653 0
-174 -7599 7600 0
-7600 7654 0
-175 -7600 7601 0
-7601 7655 0
-176 -7601 7602 0
-7602 7656 0
-177 -7602 7603 0
-7603 7657 0
-178 -7603 7604 0
-7604 7658 0
-179 -7604 7605 0
-7605 7659 0
-180 -7605 7606 0
-7606 7660 0
-181 -7606 7607 0
-7607 7661 0
-182 -7607 7608 0
-7608 7662 0
-183 -7608 7609 0
-7609 7663 0
-184 -7609 7610 0
-7610 7664 0
-185 -7610 7611 0
-7611 7665 0
-186 -7611 7612 0
-7612 7666 0
-187 -7612 7613 0
-7613 7667 0
-188 -7613 0
-135 7614 0
-7614 7668 0
-136 -7614 7615 0
-7615 7669 0
-137 -7615 7616 0
-7616 7670 0
-138 -7616 7617 0
-7617 7671 0
-139 -7617 7618 0
-7618 7672 0
-140 -7618 7619 0
-7619 7673 0
-141 -7619 7620 0
-7620 7674 0
-142 -7620 7621 0
-7621 7675 0
-143 -7621 7622 0
-7622 7676 0
-144 -7622 7623 0
-7623 7677 0
-145 -7623 7624 0
-7624 7678 0
-146 -7624 7625 0
-7625 7679 0
-147 -7625 7626 0
-7626 7680 0
-148 -7626 7627 0
-7627 7681 0
-149 -7627 7628 0
-7628 7682 0
-150 -7628 7629 0
-7629 7683 0
-151 -7629 7630 0
-7630 7684 0
-152 -7630 7631 0
-7631 7685 0
-153 -7631 7632 0
-7632 7686 0
-154 -7632 7633 0
-7633 7687 0
-155 -7633 7634 0
-7634 7688 0
-156 -7634 7635 0
-7635 7689 0
-157 -7635 7636 0
-7636 7690 0
-158 -7636 7637 0
-7637 7691 0
-159 -7637 7638 0
-7638 7692 0
-160 -7638 7639 0
-7639 7693 0
-161 -7639 7640 0
-7640 7694 0
-162 -7640 7641 0
-7641 7695 0
-163 -7641 7642 0
-7642 7696 0
-164 -7642 7643 0
-7643 7697 0
-165 -7643 7644 0
-7644 7698 0
-166 -7644 7645 0
-7645 7699 0
-167 -7645 7646 0
-7646 7700 0
-168 -7646 7647 0
-7647 7701 0
-169 -7647 7648 0
-7648 7702 0
-170 -7648 7649 0
-7649 7703 0
-171 -7649 7650 0
-7650 7704 0
-172 -7650 7651 0
-7651 7705 0
-173 -7651 7652 0
-7652 7706 0
-174 -7652 7653 0
-7653 7707 0
-175 -7653 7654 0
-7654 7708 0
-176 -7654 7655 0
-7655 7709 0
-177 -7655 7656 0
-7656 7710 0
-178 -7656 7657 0
-7657 7711 0
-179 -7657 7658 0
-7658 7712 0
-180 -7658 7659 0
-7659 7713 0
-181 -7659 7660 0
-7660 7714 0
-182 -7660 7661 0
-7661 7715 0
-183 -7661 7662 0
-7662 7716 0
-184 -7662 7663 0
-7663 7717 0
-185 -7663 7664 0
-7664 7718 0
-186 -7664 7665 0
-7665 7719 0
-187 -7665 7666 0
-7666 7720 0
-188 -7666 7667 0
-7667 7721 0
-189 -7667 0
-136 7668 0
-7668 7722 0
-137 -7668 7669 0
-7669 7723 0
-138 -7669 7670 0
-7670 7724 0
-139 -7670 7671 0
-7671 7725 0
-140 -7671 7672 0
-7672 7726 0
-141 -7672 7673 0
-7673 7727 0
-142 -7673 7674 0
-7674 7728 0
-143 -7674 7675 0
-7675 7729 0
-144 -7675 7676 0
-7676 7730 0
-145 -7676 7677 0
-7677 7731 0
-146 -7677 7678 0
-7678 7732 0
-147 -7678 7679 0
-7679 7733 0
-148 -7679 7680 0
-7680 7734 0
-149 -7680 7681 0
-7681 7735 0
-150 -7681 7682 0
-7682 7736 0
-151 -7682 7683 0
-7683 7737 0
-152 -7683 7684 0
-7684 7738 0
-153 -7684 7685 0
-7685 7739 0
-154 -7685 7686 0
-7686 7740 0
-155 -7686 7687 0
-7687 7741 0
-156 -7687 7688 0
-7688 7742 0
-157 -7688 7689 0
-7689 7743 0
-158 -7689 7690 0
-7690 7744 0
-159 -7690 7691 0
-7691 7745 0
-160 -7691 7692 0
-7692 7746 0
-161 -7692 7693 0
-7693 7747 0
-162 -7693 7694 0
-7694 7748 0
-163 -7694 7695 0
-7695 7749 0
-164 -7695 7696 0
-7696 7750 0
-165 -7696 7697 0
-7697 7751 0
-166 -7697 7698 0
-7698 7752 0
-167 -7698 7699 0
-7699 7753 0
-168 -7699 7700 0
-7700 7754 0
-169 -7700 7701 0
-7701 7755 0
-170 -7701 7702 0
-7702 7756 0
-171 -7702 7703 0
-7703 7757 0
-172 -7703 7704 0
-7704 7758 0
-173 -7704 7705 0
-7705 7759 0
-174 -7705 7706 0
-7706 7760 0
-175 -7706 7707 0
-7707 7761 0
-176 -7707 7708 0
-7708 7762 0
-177 -7708 7709 0
-7709 7763 0
-178 -7709 7710 0
-7710 7764 0
-179 -7710 7711 0
-7711 7765 0
-180 -7711 7712 0
-7712 7766 0
-181 -7712 7713 0
-7713 7767 0
-182 -7713 7714 0
-7714 7768 0
-183 -7714 7715 0
-7715 7769 0
-184 -7715 7716 0
-7716 7770 0
-185 -7716 7717 0
-7717 7771 0
-186 -7717 7718 0
-7718 7772 0
-187 -7718 7719 0
-7719 7773 0
-188 -7719 7720 0
-7720 7774 0
-189 -7720 7721 0
-7721 7775 0
-190 -7721 0
-137 7722 0
-7722 7776 0
-138 -7722 7723 0
-7723 7777 0
-139 -7723 7724 0
-7724 7778 0
-140 -7724 7725 0
-7725 7779 0
-141 -7725 7726 0
-7726 7780 0
-142 -7726 7727 0
-7727 7781 0
-143 -7727 7728 0
-7728 7782 0
-144 -7728 7729 0
-7729 7783 0
-145 -7729 7730 0
-7730 7784 0
-146 -7730 7731 0
-7731 7785 0
-147 -7731 7732 0
-7732 7786 0
-148 -7732 7733 0
-7733 7787 0
-149 -7733 7734 0
-7734 7788 0
-150 -7734 7735 0
-7735 7789 0
-151 -7735 7736 0
-7736 7790 0
-152 -7736 7737 0
-7737 7791 0
-153 -7737 7738 0
-7738 7792 0
-154 -7738 7739 0
-7739 7793 0
-155 -7739 7740 0
-7740 7794 0
-156 -7740 7741 0
-7741 7795 0
-157 -7741 7742 0
-7742 7796 0
-158 -7742 7743 0
-7743 7797 0
-159 -7743 7744 0
-7744 7798 0
-160 -7744 7745 0
-7745 7799 0
-161 -7745 7746 0
-7746 7800 0
-162 -7746 7747 0
-7747 7801 0
-163 -7747 7748 0
-7748 7802 0
-164 -7748 7749 0
-7749 7803 0
-165 -7749 7750 0
-7750 7804 0
-166 -7750 7751 0
-7751 7805 0
-167 -7751 7752 0
-7752 7806 0
-168 -7752 7753 0
-7753 7807 0
-169 -7753 7754 0
-7754 7808 0
-170 -7754 7755 0
-7755 7809 0
-171 -7755 7756 0
-7756 7810 0
-172 -7756 7757 0
-7757 7811 0
-173 -7757 7758 0
-7758 7812 0
-174 -7758 7759 0
-7759 7813 0
-175 -7759 7760 0
-7760 7814 0
-176 -7760 7761 0
-7761 7815 0
-177 -7761 7762 0
-7762 7816 0
-178 -7762 7763 0
-7763 7817 0
-179 -7763 7764 0
-7764 7818 0
-180 -7764 7765 0
-7765 7819 0
-181 -7765 7766 0
-7766 7820 0
-182 -7766 7767 0
-7767 7821 0
-183 -7767 7768 0
-7768 7822 0
-184 -7768 7769 0
-7769 7823 0
-185 -7769 7770 0
-7770 7824 0
-186 -7770 7771 0
-7771 7825 0
-187 -7771 7772 0
-7772 7826 0
-188 -7772 7773 0
-7773 7827 0
-189 -7773 7774 0
-7774 7828 0
-190 -7774 7775 0
-7775 7829 0
-191 -7775 0
-138 7776 0
-7776 7830 0
-139 -7776 7777 0
-7777 7831 0
-140 -7777 7778 0
-7778 7832 0
-141 -7778 7779 0
-7779 7833 0
-142 -7779 7780 0
-7780 7834 0
-143 -7780 7781 0
-7781 7835 0
-144 -7781 7782 0
-7782 7836 0
-145 -7782 7783 0
-7783 7837 0
-146 -7783 7784 0
-7784 7838 0
-147 -7784 7785 0
-7785 7839 0
-148 -7785 7786 0
-7786 7840 0
-149 -7786 7787 0
-7787 7841 0
-150 -7787 7788 0
-7788 7842 0
-151 -7788 7789 0
-7789 7843 0
-152 -7789 7790 0
-7790 7844 0
-153 -7790 7791 0
-7791 7845 0
-154 -7791 7792 0
-7792 7846 0
-155 -7792 7793 0
-7793 7847 0
-156 -7793 7794 0
-7794 7848 0
-157 -7794 7795 0
-7795 7849 0
-158 -7795 7796 0
-7796 7850 0
-159 -7796 7797 0
-7797 7851 0
-160 -7797 7798 0
-7798 7852 0
-161 -7798 7799 0
-7799 7853 0
-162 -7799 7800 0
-7800 7854 0
-163 -7800 7801 0
-7801 7855 0
-164 -7801 7802 0
-7802 7856 0
-165 -7802 7803 0
-7803 7857 0
-166 -7803 7804 0
-7804 7858 0
-167 -7804 7805 0
-7805 7859 0
-168 -7805 7806 0
-7806 7860 0
-169 -7806 7807 0
-7807 7861 0
-170 -7807 7808 0
-7808 7862 0
-171 -7808 7809 0
-7809 7863 0
-172 -7809 7810 0
-7810 7864 0
-173 -7810 7811 0
-7811 7865 0
-174 -7811 7812 0
-7812 7866 0
-175 -7812 7813 0
-7813 7867 0
-176 -7813 7814 0
-7814 7868 0
-177 -7814 7815 0
-7815 7869 0
-178 -7815 7816 0
-7816 7870 0
-179 -7816 7817 0
-7817 7871 0
-180 -7817 7818 0
-7818 7872 0
-181 -7818 7819 0
-7819 7873 0
-182 -7819 7820 0
-7820 7874 0
-183 -7820 7821 0
-7821 7875 0
-184 -7821 7822 0
-7822 7876 0
-185 -7822 7823 0
-7823 7877 0
-186 -7823 7824 0
-7824 7878 0
-187 -7824 7825 0
-7825 7879 0
-188 -7825 7826 0
-7826 7880 0
-189 -7826 7827 0
-7827 7881 0
-190 -7827 7828 0
-7828 7882 0
-191 -7828 7829 0
-7829 7883 0
-192 -7829 0
-139 7830 0
-7830 7884 0
-140 -7830 7831 0
-7831 7885 0
-141 -7831 7832 0
-7832 7886 0
-142 -7832 7833 0
-7833 7887 0
-143 -7833 7834 0
-7834 7888 0
-144 -7834 7835 0
-7835 7889 0
-145 -7835 7836 0
-7836 7890 0
-146 -7836 7837 0
-7837 7891 0
-147 -7837 7838 0
-7838 7892 0
-148 -7838 7839 0
-7839 7893 0
-149 -7839 7840 0
-7840 7894 0
-150 -7840 7841 0
-7841 7895 0
-151 -7841 7842 0
-7842 7896 0
-152 -7842 7843 0
-7843 7897 0
-153 -7843 7844 0
-7844 7898 0
-154 -7844 7845 0
-7845 7899 0
-155 -7845 7846 0
-7846 7900 0
-156 -7846 7847 0
-7847 7901 0
-157 -7847 7848 0
-7848 7902 0
-158 -7848 7849 0
-7849 7903 0
-159 -7849 7850 0
-7850 7904 0
-160 -7850 7851 0
-7851 7905 0
-161 -7851 7852 0
-7852 7906 0
-162 -7852 7853 0
-7853 7907 0
-163 -7853 7854 0
-7854 7908 0
-164 -7854 7855 0
-7855 7909 0
-165 -7855 7856 0
-7856 7910 0
-166 -7856 7857 0
-7857 7911 0
-167 -7857 7858 0
-7858 7912 0
-168 -7858 7859 0
-7859 7913 0
-169 -7859 7860 0
-7860 7914 0
-170 -7860 7861 0
-7861 7915 0
-171 -7861 7862 0
-7862 7916 0
-172 -7862 7863 0
-7863 7917 0
-173 -7863 7864 0
-7864 7918 0
-174 -7864 7865 0
-7865 7919 0
-175 -7865 7866 0
-7866 7920 0
-176 -7866 7867 0
-7867 7921 0
-177 -7867 7868 0
-7868 7922 0
-178 -7868 7869 0
-7869 7923 0
-179 -7869 7870 0
-7870 7924 0
-180 -7870 7871 0
-7871 7925 0
-181 -7871 7872 0
-7872 7926 0
-182 -7872 7873 0
-7873 7927 0
-183 -7873 7874 0
-7874 7928 0
-184 -7874 7875 0
-7875 7929 0
-185 -7875 7876 0
-7876 7930 0
-186 -7876 7877 0
-7877 7931 0
-187 -7877 7878 0
-7878 7932 0
-188 -7878 7879 0
-7879 7933 0
-189 -7879 7880 0
-7880 7934 0
-190 -7880 7881 0
-7881 7935 0
-191 -7881 7882 0
-7882 7936 0
-192 -7882 7883 0
-7883 7937 0
-193 -7883 0
-140 7884 0
-7884 7938 0
-141 -7884 7885 0
-7885 7939 0
-142 -7885 7886 0
-7886 7940 0
-143 -7886 7887 0
-7887 7941 0
-144 -7887 7888 0
-7888 7942 0
-145 -7888 7889 0
-7889 7943 0
-146 -7889 7890 0
-7890 7944 0
-147 -7890 7891 0
-7891 7945 0
-148 -7891 7892 0
-7892 7946 0
-149 -7892 7893 0
-7893 7947 0
-150 -7893 7894 0
-7894 7948 0
-151 -7894 7895 0
-7895 7949 0
-152 -7895 7896 0
-7896 7950 0
-153 -7896 7897 0
-7897 7951 0
-154 -7897 7898 0
-7898 7952 0
-155 -7898 7899 0
-7899 7953 0
-156 -7899 7900 0
-7900 7954 0
-157 -7900 7901 0
-7901 7955 0
-158 -7901 7902 0
-7902 7956 0
-159 -7902 7903 0
-7903 7957 0
-160 -7903 7904 0
-7904 7958 0
-161 -7904 7905 0
-7905 7959 0
-162 -7905 7906 0
-7906 7960 0
-163 -7906 7907 0
-7907 7961 0
-164 -7907 7908 0
-7908 7962 0
-165 -7908 7909 0
-7909 7963 0
-166 -7909 7910 0
-7910 7964 0
-167 -7910 7911 0
-7911 7965 0
-168 -7911 7912 0
-7912 7966 0
-169 -7912 7913 0
-7913 7967 0
-170 -7913 7914 0
-7914 7968 0
-171 -7914 7915 0
-7915 7969 0
-172 -7915 7916 0
-7916 7970 0
-173 -7916 7917 0
-7917 7971 0
-174 -7917 7918 0
-7918 7972 0
-175 -7918 7919 0
-7919 7973 0
-176 -7919 7920 0
-7920 7974 0
-177 -7920 7921 0
-7921 7975 0
-178 -7921 7922 0
-7922 7976 0
-179 -7922 7923 0
-7923 7977 0
-180 -7923 7924 0
-7924 7978 0
-181 -7924 7925 0
-7925 7979 0
-182 -7925 7926 0
-7926 7980 0
-183 -7926 7927 0
-7927 7981 0
-184 -7927 7928 0
-7928 7982 0
-185 -7928 7929 0
-7929 7983 0
-186 -7929 7930 0
-7930 7984 0
-187 -7930 7931 0
-7931 7985 0
-188 -7931 7932 0
-7932 7986 0
-189 -7932 7933 0
-7933 7987 0
-190 -7933 7934 0
-7934 7988 0
-191 -7934 7935 0
-7935 7989 0
-192 -7935 7936 0
-7936 7990 0
-193 -7936 7937 0
-7937 7991 0
-194 -7937 0
-141 7938 0
-7938 7992 0
-142 -7938 7939 0
-7939 7993 0
-143 -7939 7940 0
-7940 7994 0
-144 -7940 7941 0
-7941 7995 0
-145 -7941 7942 0
-7942 7996 0
-146 -7942 7943 0
-7943 7997 0
-147 -7943 7944 0
-7944 7998 0
-148 -7944 7945 0
-7945 7999 0
-149 -7945 7946 0
-7946 8000 0
-150 -7946 7947 0
-7947 8001 0
-151 -7947 7948 0
-7948 8002 0
-152 -7948 7949 0
-7949 8003 0
-153 -7949 7950 0
-7950 8004 0
-154 -7950 7951 0
-7951 8005 0
-155 -7951 7952 0
-7952 8006 0
-156 -7952 7953 0
-7953 8007 0
-157 -7953 7954 0
-7954 8008 0
-158 -7954 7955 0
-7955 8009 0
-159 -7955 7956 0
-7956 8010 0
-160 -7956 7957 0
-7957 8011 0
-161 -7957 7958 0
-7958 8012 0
-162 -7958 7959 0
-7959 8013 0
-163 -7959 7960 0
-7960 8014 0
-164 -7960 7961 0
-7961 8015 0
-165 -7961 7962 0
-7962 8016 0
-166 -7962 7963 0
-7963 8017 0
-167 -7963 7964 0
-7964 8018 0
-168 -7964 7965 0
-7965 8019 0
-169 -7965 7966 0
-7966 8020 0
-170 -7966 7967 0
-7967 8021 0
-171 -7967 7968 0
-7968 8022 0
-172 -7968 7969 0
-7969 8023 0
-173 -7969 7970 0
-7970 8024 0
-174 -7970 7971 0
-7971 8025 0
-175 -7971 7972 0
-7972 8026 0
-176 -7972 7973 0
-7973 8027 0
-177 -7973 7974 0
-7974 8028 0
-178 -7974 7975 0
-7975 8029 0
-179 -7975 7976 0
-7976 8030 0
-180 -7976 7977 0
-7977 8031 0
-181 -7977 7978 0
-7978 8032 0
-182 -7978 7979 0
-7979 8033 0
-183 -7979 7980 0
-7980 8034 0
-184 -7980 7981 0
-7981 8035 0
-185 -7981 7982 0
-7982 8036 0
-186 -7982 7983 0
-7983 8037 0
-187 -7983 7984 0
-7984 8038 0
-188 -7984 7985 0
-7985 8039 0
-189 -7985 7986 0
-7986 8040 0
-190 -7986 7987 0
-7987 8041 0
-191 -7987 7988 0
-7988 8042 0
-192 -7988 7989 0
-7989 8043 0
-193 -7989 7990 0
-7990 8044 0
-194 -7990 7991 0
-7991 8045 0
-195 -7991 0
-142 7992 0
-7992 8046 0
-143 -7992 7993 0
-7993 8047 0
-144 -7993 7994 0
-7994 8048 0
-145 -7994 7995 0
-7995 8049 0
-146 -7995 7996 0
-7996 8050 0
-147 -7996 7997 0
-7997 8051 0
-148 -7997 7998 0
-7998 8052 0
-149 -7998 7999 0
-7999 8053 0
-150 -7999 8000 0
-8000 8054 0
-151 -8000 8001 0
-8001 8055 0
-152 -8001 8002 0
-8002 8056 0
-153 -8002 8003 0
-8003 8057 0
-154 -8003 8004 0
-8004 8058 0
-155 -8004 8005 0
-8005 8059 0
-156 -8005 8006 0
-8006 8060 0
-157 -8006 8007 0
-8007 8061 0
-158 -8007 8008 0
-8008 8062 0
-159 -8008 8009 0
-8009 8063 0
-160 -8009 8010 0
-8010 8064 0
-161 -8010 8011 0
-8011 8065 0
-162 -8011 8012 0
-8012 8066 0
-163 -8012 8013 0
-8013 8067 0
-164 -8013 8014 0
-8014 8068 0
-165 -8014 8015 0
-8015 8069 0
-166 -8015 8016 0
-8016 8070 0
-167 -8016 8017 0
-8017 8071 0
-168 -8017 8018 0
-8018 8072 0
-169 -8018 8019 0
-8019 8073 0
-170 -8019 8020 0
-8020 8074 0
-171 -8020 8021 0
-8021 8075 0
-172 -8021 8022 0
-8022 8076 0
-173 -8022 8023 0
-8023 8077 0
-174 -8023 8024 0
-8024 8078 0
-175 -8024 8025 0
-8025 8079 0
-176 -8025 8026 0
-8026 8080 0
-177 -8026 8027 0
-8027 8081 0
-178 -8027 8028 0
-8028 8082 0
-179 -8028 8029 0
-8029 8083 0
-180 -8029 8030 0
-8030 8084 0
-181 -8030 8031 0
-8031 8085 0
-182 -8031 8032 0
-8032 8086 0
-183 -8032 8033 0
-8033 8087 0
-184 -8033 8034 0
-8034 8088 0
-185 -8034 8035 0
-8035 8089 0
-186 -8035 8036 0
-8036 8090 0
-187 -8036 8037 0
-8037 8091 0
-188 -8037 8038 0
-8038 8092 0
-189 -8038 8039 0
-8039 8093 0
-190 -8039 8040 0
-8040 8094 0
-191 -8040 8041 0
-8041 8095 0
-192 -8041 8042 0
-8042 8096 0
-193 -8042 8043 0
-8043 8097 0
-194 -8043 8044 0
-8044 8098 0
-195 -8044 8045 0
-8045 8099 0
-196 -8045 0
-143 8046 0
-8046 8100 0
-144 -8046 8047 0
-8047 8101 0
-145 -8047 8048 0
-8048 8102 0
-146 -8048 8049 0
-8049 8103 0
-147 -8049 8050 0
-8050 8104 0
-148 -8050 8051 0
-8051 8105 0
-149 -8051 8052 0
-8052 8106 0
-150 -8052 8053 0
-8053 8107 0
-151 -8053 8054 0
-8054 8108 0
-152 -8054 8055 0
-8055 8109 0
-153 -8055 8056 0
-8056 8110 0
-154 -8056 8057 0
-8057 8111 0
-155 -8057 8058 0
-8058 8112 0
-156 -8058 8059 0
-8059 8113 0
-157 -8059 8060 0
-8060 8114 0
-158 -8060 8061 0
-8061 8115 0
-159 -8061 8062 0
-8062 8116 0
-160 -8062 8063 0
-8063 8117 0
-161 -8063 8064 0
-8064 8118 0
-162 -8064 8065 0
-8065 8119 0
-163 -8065 8066 0
-8066 8120 0
-164 -8066 8067 0
-8067 8121 0
-165 -8067 8068 0
-8068 8122 0
-166 -8068 8069 0
-8069 8123 0
-167 -8069 8070 0
-8070 8124 0
-168 -8070 8071 0
-8071 8125 0
-169 -8071 8072 0
-8072 8126 0
-170 -8072 8073 0
-8073 8127 0
-171 -8073 8074 0
-8074 8128 0
-172 -8074 8075 0
-8075 8129 0
-173 -8075 8076 0
-8076 8130 0
-174 -8076 8077 0
-8077 8131 0
-175 -8077 8078 0
-8078 8132 0
-176 -8078 8079 0
-8079 8133 0
-177 -8079 8080 0
-8080 8134 0
-178 -8080 8081 0
-8081 8135 0
-179 -8081 8082 0
-8082 8136 0
-180 -8082 8083 0
-8083 8137 0
-181 -8083 8084 0
-8084 8138 0
-182 -8084 8085 0
-8085 8139 0
-183 -8085 8086 0
-8086 8140 0
-184 -8086 8087 0
-8087 8141 0
-185 -8087 8088 0
-8088 8142 0
-186 -8088 8089 0
-8089 8143 0
-187 -8089 8090 0
-8090 8144 0
-188 -8090 8091 0
-8091 8145 0
-189 -8091 8092 0
-8092 8146 0
-190 -8092 8093 0
-8093 8147 0
-191 -8093 8094 0
-8094 8148 0
-192 -8094 8095 0
-8095 8149 0
-193 -8095 8096 0
-8096 8150 0
-194 -8096 8097 0
-8097 8151 0
-195 -8097 8098 0
-8098 8152 0
-196 -8098 8099 0
-8099 8153 0
-197 -8099 0
-144 8100 0
-8100 8154 0
-145 -8100 8101 0
-8101 8155 0
-146 -8101 8102 0
-8102 8156 0
-147 -8102 8103 0
-8103 8157 0
-148 -8103 8104 0
-8104 8158 0
-149 -8104 8105 0
-8105 8159 0
-150 -8105 8106 0
-8106 8160 0
-151 -8106 8107 0
-8107 8161 0
-152 -8107 8108 0
-8108 8162 0
-153 -8108 8109 0
-8109 8163 0
-154 -8109 8110 0
-8110 8164 0
-155 -8110 8111 0
-8111 8165 0
-156 -8111 8112 0
-8112 8166 0
-157 -8112 8113 0
-8113 8167 0
-158 -8113 8114 0
-8114 8168 0
-159 -8114 8115 0
-8115 8169 0
-160 -8115 8116 0
-8116 8170 0
-161 -8116 8117 0
-8117 8171 0
-162 -8117 8118 0
-8118 8172 0
-163 -8118 8119 0
-8119 8173 0
-164 -8119 8120 0
-8120 8174 0
-165 -8120 8121 0
-8121 8175 0
-166 -8121 8122 0
-8122 8176 0
-167 -8122 8123 0
-8123 8177 0
-168 -8123 8124 0
-8124 8178 0
-169 -8124 8125 0
-8125 8179 0
-170 -8125 8126 0
-8126 8180 0
-171 -8126 8127 0
-8127 8181 0
-172 -8127 8128 0
-8128 8182 0
-173 -8128 8129 0
-8129 8183 0
-174 -8129 8130 0
-8130 8184 0
-175 -8130 8131 0
-8131 8185 0
-176 -8131 8132 0
-8132 8186 0
-177 -8132 8133 0
-8133 8187 0
-178 -8133 8134 0
-8134 8188 0
-179 -8134 8135 0
-8135 8189 0
-180 -8135 8136 0
-8136 8190 0
-181 -8136 8137 0
-8137 8191 0
-182 -8137 8138 0
-8138 8192 0
-183 -8138 8139 0
-8139 8193 0
-184 -8139 8140 0
-8140 8194 0
-185 -8140 8141 0
-8141 8195 0
-186 -8141 8142 0
-8142 8196 0
-187 -8142 8143 0
-8143 8197 0
-188 -8143 8144 0
-8144 8198 0
-189 -8144 8145 0
-8145 8199 0
-190 -8145 8146 0
-8146 8200 0
-191 -8146 8147 0
-8147 8201 0
-192 -8147 8148 0
-8148 8202 0
-193 -8148 8149 0
-8149 8203 0
-194 -8149 8150 0
-8150 8204 0
-195 -8150 8151 0
-8151 8205 0
-196 -8151 8152 0
-8152 8206 0
-197 -8152 8153 0
-8153 8207 0
-198 -8153 0
-145 8154 0
-8154 8208 0
-146 -8154 8155 0
-8155 8209 0
-147 -8155 8156 0
-8156 8210 0
-148 -8156 8157 0
-8157 8211 0
-149 -8157 8158 0
-8158 8212 0
-150 -8158 8159 0
-8159 8213 0
-151 -8159 8160 0
-8160 8214 0
-152 -8160 8161 0
-8161 8215 0
-153 -8161 8162 0
-8162 8216 0
-154 -8162 8163 0
-8163 8217 0
-155 -8163 8164 0
-8164 8218 0
-156 -8164 8165 0
-8165 8219 0
-157 -8165 8166 0
-8166 8220 0
-158 -8166 8167 0
-8167 8221 0
-159 -8167 8168 0
-8168 8222 0
-160 -8168 8169 0
-8169 8223 0
-161 -8169 8170 0
-8170 8224 0
-162 -8170 8171 0
-8171 8225 0
-163 -8171 8172 0
-8172 8226 0
-164 -8172 8173 0
-8173 8227 0
-165 -8173 8174 0
-8174 8228 0
-166 -8174 8175 0
-8175 8229 0
-167 -8175 8176 0
-8176 8230 0
-168 -8176 8177 0
-8177 8231 0
-169 -8177 8178 0
-8178 8232 0
-170 -8178 8179 0
-8179 8233 0
-171 -8179 8180 0
-8180 8234 0
-172 -8180 8181 0
-8181 8235 0
-173 -8181 8182 0
-8182 8236 0
-174 -8182 8183 0
-8183 8237 0
-175 -8183 8184 0
-8184 8238 0
-176 -8184 8185 0
-8185 8239 0
-177 -8185 8186 0
-8186 8240 0
-178 -8186 8187 0
-8187 8241 0
-179 -8187 8188 0
-8188 8242 0
-180 -8188 8189 0
-8189 8243 0
-181 -8189 8190 0
-8190 8244 0
-182 -8190 8191 0
-8191 8245 0
-183 -8191 8192 0
-8192 8246 0
-184 -8192 8193 0
-8193 8247 0
-185 -8193 8194 0
-8194 8248 0
-186 -8194 8195 0
-8195 8249 0
-187 -8195 8196 0
-8196 8250 0
-188 -8196 8197 0
-8197 8251 0
-189 -8197 8198 0
-8198 8252 0
-190 -8198 8199 0
-8199 8253 0
-191 -8199 8200 0
-8200 8254 0
-192 -8200 8201 0
-8201 8255 0
-193 -8201 8202 0
-8202 8256 0
-194 -8202 8203 0
-8203 8257 0
-195 -8203 8204 0
-8204 8258 0
-196 -8204 8205 0
-8205 8259 0
-197 -8205 8206 0
-8206 8260 0
-198 -8206 8207 0
-8207 8261 0
-199 -8207 0
-146 8208 0
-8208 8262 0
-147 -8208 8209 0
-8209 8263 0
-148 -8209 8210 0
-8210 8264 0
-149 -8210 8211 0
-8211 8265 0
-150 -8211 8212 0
-8212 8266 0
-151 -8212 8213 0
-8213 8267 0
-152 -8213 8214 0
-8214 8268 0
-153 -8214 8215 0
-8215 8269 0
-154 -8215 8216 0
-8216 8270 0
-155 -8216 8217 0
-8217 8271 0
-156 -8217 8218 0
-8218 8272 0
-157 -8218 8219 0
-8219 8273 0
-158 -8219 8220 0
-8220 8274 0
-159 -8220 8221 0
-8221 8275 0
-160 -8221 8222 0
-8222 8276 0
-161 -8222 8223 0
-8223 8277 0
-162 -8223 8224 0
-8224 8278 0
-163 -8224 8225 0
-8225 8279 0
-164 -8225 8226 0
-8226 8280 0
-165 -8226 8227 0
-8227 8281 0
-166 -8227 8228 0
-8228 8282 0
-167 -8228 8229 0
-8229 8283 0
-168 -8229 8230 0
-8230 8284 0
-169 -8230 8231 0
-8231 8285 0
-170 -8231 8232 0
-8232 8286 0
-171 -8232 8233 0
-8233 8287 0
-172 -8233 8234 0
-8234 8288 0
-173 -8234 8235 0
-8235 8289 0
-174 -8235 8236 0
-8236 8290 0
-175 -8236 8237 0
-8237 8291 0
-176 -8237 8238 0
-8238 8292 0
-177 -8238 8239 0
-8239 8293 0
-178 -8239 8240 0
-8240 8294 0
-179 -8240 8241 0
-8241 8295 0
-180 -8241 8242 0
-8242 8296 0
-181 -8242 8243 0
-8243 8297 0
-182 -8243 8244 0
-8244 8298 0
-183 -8244 8245 0
-8245 8299 0
-184 -8245 8246 0
-8246 8300 0
-185 -8246 8247 0
-8247 8301 0
-186 -8247 8248 0
-8248 8302 0
-187 -8248 8249 0
-8249 8303 0
-188 -8249 8250 0
-8250 8304 0
-189 -8250 8251 0
-8251 8305 0
-190 -8251 8252 0
-8252 8306 0
-191 -8252 8253 0
-8253 8307 0
-192 -8253 8254 0
-8254 8308 0
-193 -8254 8255 0
-8255 8309 0
-194 -8255 8256 0
-8256 8310 0
-195 -8256 8257 0
-8257 8311 0
-196 -8257 8258 0
-8258 8312 0
-197 -8258 8259 0
-8259 8313 0
-198 -8259 8260 0
-8260 8314 0
-199 -8260 8261 0
-8261 8315 0
-200 -8261 0
-147 8262 0
-8262 8316 0
-148 -8262 8263 0
-8263 8317 0
-149 -8263 8264 0
-8264 8318 0
-150 -8264 8265 0
-8265 8319 0
-151 -8265 8266 0
-8266 8320 0
-152 -8266 8267 0
-8267 8321 0
-153 -8267 8268 0
-8268 8322 0
-154 -8268 8269 0
-8269 8323 0
-155 -8269 8270 0
-8270 8324 0
-156 -8270 8271 0
-8271 8325 0
-157 -8271 8272 0
-8272 8326 0
-158 -8272 8273 0
-8273 8327 0
-159 -8273 8274 0
-8274 8328 0
-160 -8274 8275 0
-8275 8329 0
-161 -8275 8276 0
-8276 8330 0
-162 -8276 8277 0
-8277 8331 0
-163 -8277 8278 0
-8278 8332 0
-164 -8278 8279 0
-8279 8333 0
-165 -8279 8280 0
-8280 8334 0
-166 -8280 8281 0
-8281 8335 0
-167 -8281 8282 0
-8282 8336 0
-168 -8282 8283 0
-8283 8337 0
-169 -8283 8284 0
-8284 8338 0
-170 -8284 8285 0
-8285 8339 0
-171 -8285 8286 0
-8286 8340 0
-172 -8286 8287 0
-8287 8341 0
-173 -8287 8288 0
-8288 8342 0
-174 -8288 8289 0
-8289 8343 0
-175 -8289 8290 0
-8290 8344 0
-176 -8290 8291 0
-8291 8345 0
-177 -8291 8292 0
-8292 8346 0
-178 -8292 8293 0
-8293 8347 0
-179 -8293 8294 0
-8294 8348 0
-180 -8294 8295 0
-8295 8349 0
-181 -8295 8296 0
-8296 8350 0
-182 -8296 8297 0
-8297 8351 0
-183 -8297 8298 0
-8298 8352 0
-184 -8298 8299 0
-8299 8353 0
-185 -8299 8300 0
-8300 8354 0
-186 -8300 8301 0
-8301 8355 0
-187 -8301 8302 0
-8302 8356 0
-188 -8302 8303 0
-8303 8357 0
-189 -8303 8304 0
-8304 8358 0
-190 -8304 8305 0
-8305 8359 0
-191 -8305 8306 0
-8306 8360 0
-192 -8306 8307 0
-8307 8361 0
-193 -8307 8308 0
-8308 8362 0
-194 -8308 8309 0
-8309 8363 0
-195 -8309 8310 0
-8310 8364 0
-196 -8310 8311 0
-8311 8365 0
-197 -8311 8312 0
-8312 8366 0
-198 -8312 8313 0
-8313 8367 0
-199 -8313 8314 0
-8314 8368 0
-200 -8314 8315 0
-8315 8369 0
-201 -8315 0
-148 8316 0
-8316 8370 0
-149 -8316 8317 0
-8317 8371 0
-150 -8317 8318 0
-8318 8372 0
-151 -8318 8319 0
-8319 8373 0
-152 -8319 8320 0
-8320 8374 0
-153 -8320 8321 0
-8321 8375 0
-154 -8321 8322 0
-8322 8376 0
-155 -8322 8323 0
-8323 8377 0
-156 -8323 8324 0
-8324 8378 0
-157 -8324 8325 0
-8325 8379 0
-158 -8325 8326 0
-8326 8380 0
-159 -8326 8327 0
-8327 8381 0
-160 -8327 8328 0
-8328 8382 0
-161 -8328 8329 0
-8329 8383 0
-162 -8329 8330 0
-8330 8384 0
-163 -8330 8331 0
-8331 8385 0
-164 -8331 8332 0
-8332 8386 0
-165 -8332 8333 0
-8333 8387 0
-166 -8333 8334 0
-8334 8388 0
-167 -8334 8335 0
-8335 8389 0
-168 -8335 8336 0
-8336 8390 0
-169 -8336 8337 0
-8337 8391 0
-170 -8337 8338 0
-8338 8392 0
-171 -8338 8339 0
-8339 8393 0
-172 -8339 8340 0
-8340 8394 0
-173 -8340 8341 0
-8341 8395 0
-174 -8341 8342 0
-8342 8396 0
-175 -8342 8343 0
-8343 8397 0
-176 -8343 8344 0
-8344 8398 0
-177 -8344 8345 0
-8345 8399 0
-178 -8345 8346 0
-8346 8400 0
-179 -8346 8347 0
-8347 8401 0
-180 -8347 8348 0
-8348 8402 0
-181 -8348 8349 0
-8349 8403 0
-182 -8349 8350 0
-8350 8404 0
-183 -8350 8351 0
-8351 8405 0
-184 -8351 8352 0
-8352 8406 0
-185 -8352 8353 0
-8353 8407 0
-186 -8353 8354 0
-8354 8408 0
-187 -8354 8355 0
-8355 8409 0
-188 -8355 8356 0
-8356 8410 0
-189 -8356 8357 0
-8357 8411 0
-190 -8357 8358 0
-8358 8412 0
-191 -8358 8359 0
-8359 8413 0
-192 -8359 8360 0
-8360 8414 0
-193 -8360 8361 0
-8361 8415 0
-194 -8361 8362 0
-8362 8416 0
-195 -8362 8363 0
-8363 8417 0
-196 -8363 8364 0
-8364 8418 0
-197 -8364 8365 0
-8365 8419 0
-198 -8365 8366 0
-8366 8420 0
-199 -8366 8367 0
-8367 8421 0
-200 -8367 8368 0
-8368 8422 0
-201 -8368 8369 0
-8369 8423 0
-202 -8369 0
-149 8370 0
-8370 8424 0
-150 -8370 8371 0
-8371 8425 0
-151 -8371 8372 0
-8372 8426 0
-152 -8372 8373 0
-8373 8427 0
-153 -8373 8374 0
-8374 8428 0
-154 -8374 8375 0
-8375 8429 0
-155 -8375 8376 0
-8376 8430 0
-156 -8376 8377 0
-8377 8431 0
-157 -8377 8378 0
-8378 8432 0
-158 -8378 8379 0
-8379 8433 0
-159 -8379 8380 0
-8380 8434 0
-160 -8380 8381 0
-8381 8435 0
-161 -8381 8382 0
-8382 8436 0
-162 -8382 8383 0
-8383 8437 0
-163 -8383 8384 0
-8384 8438 0
-164 -8384 8385 0
-8385 8439 0
-165 -8385 8386 0
-8386 8440 0
-166 -8386 8387 0
-8387 8441 0
-167 -8387 8388 0
-8388 8442 0
-168 -8388 8389 0
-8389 8443 0
-169 -8389 8390 0
-8390 8444 0
-170 -8390 8391 0
-8391 8445 0
-171 -8391 8392 0
-8392 8446 0
-172 -8392 8393 0
-8393 8447 0
-173 -8393 8394 0
-8394 8448 0
-174 -8394 8395 0
-8395 8449 0
-175 -8395 8396 0
-8396 8450 0
-176 -8396 8397 0
-8397 8451 0
-177 -8397 8398 0
-8398 8452 0
-178 -8398 8399 0
-8399 8453 0
-179 -8399 8400 0
-8400 8454 0
-180 -8400 8401 0
-8401 8455 0
-181 -8401 8402 0
-8402 8456 0
-182 -8402 8403 0
-8403 8457 0
-183 -8403 8404 0
-8404 8458 0
-184 -8404 8405 0
-8405 8459 0
-185 -8405 8406 0
-8406 8460 0
-186 -8406 8407 0
-8407 8461 0
-187 -8407 8408 0
-8408 8462 0
-188 -8408 8409 0
-8409 8463 0
-189 -8409 8410 0
-8410 8464 0
-190 -8410 8411 0
-8411 8465 0
-191 -8411 8412 0
-8412 8466 0
-192 -8412 8413 0
-8413 8467 0
-193 -8413 8414 0
-8414 8468 0
-194 -8414 8415 0
-8415 8469 0
-195 -8415 8416 0
-8416 8470 0
-196 -8416 8417 0
-8417 8471 0
-197 -8417 8418 0
-8418 8472 0
-198 -8418 8419 0
-8419 8473 0
-199 -8419 8420 0
-8420 8474 0
-200 -8420 8421 0
-8421 8475 0
-201 -8421 8422 0
-8422 8476 0
-202 -8422 8423 0
-8423 8477 0
-203 -8423 0
-150 8424 0
-8424 8478 0
-151 -8424 8425 0
-8425 8479 0
-152 -8425 8426 0
-8426 8480 0
-153 -8426 8427 0
-8427 8481 0
-154 -8427 8428 0
-8428 8482 0
-155 -8428 8429 0
-8429 8483 0
-156 -8429 8430 0
-8430 8484 0
-157 -8430 8431 0
-8431 8485 0
-158 -8431 8432 0
-8432 8486 0
-159 -8432 8433 0
-8433 8487 0
-160 -8433 8434 0
-8434 8488 0
-161 -8434 8435 0
-8435 8489 0
-162 -8435 8436 0
-8436 8490 0
-163 -8436 8437 0
-8437 8491 0
-164 -8437 8438 0
-8438 8492 0
-165 -8438 8439 0
-8439 8493 0
-166 -8439 8440 0
-8440 8494 0
-167 -8440 8441 0
-8441 8495 0
-168 -8441 8442 0
-8442 8496 0
-169 -8442 8443 0
-8443 8497 0
-170 -8443 8444 0
-8444 8498 0
-171 -8444 8445 0
-8445 8499 0
-172 -8445 8446 0
-8446 8500 0
-173 -8446 8447 0
-8447 8501 0
-174 -8447 8448 0
-8448 8502 0
-175 -8448 8449 0
-8449 8503 0
-176 -8449 8450 0
-8450 8504 0
-177 -8450 8451 0
-8451 8505 0
-178 -8451 8452 0
-8452 8506 0
-179 -8452 8453 0
-8453 8507 0
-180 -8453 8454 0
-8454 8508 0
-181 -8454 8455 0
-8455 8509 0
-182 -8455 8456 0
-8456 8510 0
-183 -8456 8457 0
-8457 8511 0
-184 -8457 8458 0
-8458 8512 0
-185 -8458 8459 0
-8459 8513 0
-186 -8459 8460 0
-8460 8514 0
-187 -8460 8461 0
-8461 8515 0
-188 -8461 8462 0
-8462 8516 0
-189 -8462 8463 0
-8463 8517 0
-190 -8463 8464 0
-8464 8518 0
-191 -8464 8465 0
-8465 8519 0
-192 -8465 8466 0
-8466 8520 0
-193 -8466 8467 0
-8467 8521 0
-194 -8467 8468 0
-8468 8522 0
-195 -8468 8469 0
-8469 8523 0
-196 -8469 8470 0
-8470 8524 0
-197 -8470 8471 0
-8471 8525 0
-198 -8471 8472 0
-8472 8526 0
-199 -8472 8473 0
-8473 8527 0
-200 -8473 8474 0
-8474 8528 0
-201 -8474 8475 0
-8475 8529 0
-202 -8475 8476 0
-8476 8530 0
-203 -8476 8477 0
-8477 8531 0
-204 -8477 0
-151 8478 0
-8478 8532 0
-152 -8478 8479 0
-8479 8533 0
-153 -8479 8480 0
-8480 8534 0
-154 -8480 8481 0
-8481 8535 0
-155 -8481 8482 0
-8482 8536 0
-156 -8482 8483 0
-8483 8537 0
-157 -8483 8484 0
-8484 8538 0
-158 -8484 8485 0
-8485 8539 0
-159 -8485 8486 0
-8486 8540 0
-160 -8486 8487 0
-8487 8541 0
-161 -8487 8488 0
-8488 8542 0
-162 -8488 8489 0
-8489 8543 0
-163 -8489 8490 0
-8490 8544 0
-164 -8490 8491 0
-8491 8545 0
-165 -8491 8492 0
-8492 8546 0
-166 -8492 8493 0
-8493 8547 0
-167 -8493 8494 0
-8494 8548 0
-168 -8494 8495 0
-8495 8549 0
-169 -8495 8496 0
-8496 8550 0
-170 -8496 8497 0
-8497 8551 0
-171 -8497 8498 0
-8498 8552 0
-172 -8498 8499 0
-8499 8553 0
-173 -8499 8500 0
-8500 8554 0
-174 -8500 8501 0
-8501 8555 0
-175 -8501 8502 0
-8502 8556 0
-176 -8502 8503 0
-8503 8557 0
-177 -8503 8504 0
-8504 8558 0
-178 -8504 8505 0
-8505 8559 0
-179 -8505 8506 0
-8506 8560 0
-180 -8506 8507 0
-8507 8561 0
-181 -8507 8508 0
-8508 8562 0
-182 -8508 8509 0
-8509 8563 0
-183 -8509 8510 0
-8510 8564 0
-184 -8510 8511 0
-8511 8565 0
-185 -8511 8512 0
-8512 8566 0
-186 -8512 8513 0
-8513 8567 0
-187 -8513 8514 0
-8514 8568 0
-188 -8514 8515 0
-8515 8569 0
-189 -8515 8516 0
-8516 8570 0
-190 -8516 8517 0
-8517 8571 0
-191 -8517 8518 0
-8518 8572 0
-192 -8518 8519 0
-8519 8573 0
-193 -8519 8520 0
-8520 8574 0
-194 -8520 8521 0
-8521 8575 0
-195 -8521 8522 0
-8522 8576 0
-196 -8522 8523 0
-8523 8577 0
-197 -8523 8524 0
-8524 8578 0
-198 -8524 8525 0
-8525 8579 0
-199 -8525 8526 0
-8526 8580 0
-200 -8526 8527 0
-8527 8581 0
-201 -8527 8528 0
-8528 8582 0
-202 -8528 8529 0
-8529 8583 0
-203 -8529 8530 0
-8530 8584 0
-204 -8530 8531 0
-8531 8585 0
-205 -8531 0
-152 8532 0
-8532 8586 0
-153 -8532 8533 0
-8533 8587 0
-154 -8533 8534 0
-8534 8588 0
-155 -8534 8535 0
-8535 8589 0
-156 -8535 8536 0
-8536 8590 0
-157 -8536 8537 0
-8537 8591 0
-158 -8537 8538 0
-8538 8592 0
-159 -8538 8539 0
-8539 8593 0
-160 -8539 8540 0
-8540 8594 0
-161 -8540 8541 0
-8541 8595 0
-162 -8541 8542 0
-8542 8596 0
-163 -8542 8543 0
-8543 8597 0
-164 -8543 8544 0
-8544 8598 0
-165 -8544 8545 0
-8545 8599 0
-166 -8545 8546 0
-8546 8600 0
-167 -8546 8547 0
-8547 8601 0
-168 -8547 8548 0
-8548 8602 0
-169 -8548 8549 0
-8549 8603 0
-170 -8549 8550 0
-8550 8604 0
-171 -8550 8551 0
-8551 8605 0
-172 -8551 8552 0
-8552 8606 0
-173 -8552 8553 0
-8553 8607 0
-174 -8553 8554 0
-8554 8608 0
-175 -8554 8555 0
-8555 8609 0
-176 -8555 8556 0
-8556 8610 0
-177 -8556 8557 0
-8557 8611 0
-178 -8557 8558 0
-8558 8612 0
-179 -8558 8559 0
-8559 8613 0
-180 -8559 8560 0
-8560 8614 0
-181 -8560 8561 0
-8561 8615 0
-182 -8561 8562 0
-8562 8616 0
-183 -8562 8563 0
-8563 8617 0
-184 -8563 8564 0
-8564 8618 0
-185 -8564 8565 0
-8565 8619 0
-186 -8565 8566 0
-8566 8620 0
-187 -8566 8567 0
-8567 8621 0
-188 -8567 8568 0
-8568 8622 0
-189 -8568 8569 0
-8569 8623 0
-190 -8569 8570 0
-8570 8624 0
-191 -8570 8571 0
-8571 8625 0
-192 -8571 8572 0
-8572 8626 0
-193 -8572 8573 0
-8573 8627 0
-194 -8573 8574 0
-8574 8628 0
-195 -8574 8575 0
-8575 8629 0
-196 -8575 8576 0
-8576 8630 0
-197 -8576 8577 0
-8577 8631 0
-198 -8577 8578 0
-8578 8632 0
-199 -8578 8579 0
-8579 8633 0
-200 -8579 8580 0
-8580 8634 0
-201 -8580 8581 0
-8581 8635 0
-202 -8581 8582 0
-8582 8636 0
-203 -8582 8583 0
-8583 8637 0
-204 -8583 8584 0
-8584 8638 0
-205 -8584 8585 0
-8585 8639 0
-206 -8585 0
-153 8586 0
-8586 8640 0
-154 -8586 8587 0
-8587 8641 0
-155 -8587 8588 0
-8588 8642 0
-156 -8588 8589 0
-8589 8643 0
-157 -8589 8590 0
-8590 8644 0
-158 -8590 8591 0
-8591 8645 0
-159 -8591 8592 0
-8592 8646 0
-160 -8592 8593 0
-8593 8647 0
-161 -8593 8594 0
-8594 8648 0
-162 -8594 8595 0
-8595 8649 0
-163 -8595 8596 0
-8596 8650 0
-164 -8596 8597 0
-8597 8651 0
-165 -8597 8598 0
-8598 8652 0
-166 -8598 8599 0
-8599 8653 0
-167 -8599 8600 0
-8600 8654 0
-168 -8600 8601 0
-8601 8655 0
-169 -8601 8602 0
-8602 8656 0
-170 -8602 8603 0
-8603 8657 0
-171 -8603 8604 0
-8604 8658 0
-172 -8604 8605 0
-8605 8659 0
-173 -8605 8606 0
-8606 8660 0
-174 -8606 8607 0
-8607 8661 0
-175 -8607 8608 0
-8608 8662 0
-176 -8608 8609 0
-8609 8663 0
-177 -8609 8610 0
-8610 8664 0
-178 -8610 8611 0
-8611 8665 0
-179 -8611 8612 0
-8612 8666 0
-180 -8612 8613 0
-8613 8667 0
-181 -8613 8614 0
-8614 8668 0
-182 -8614 8615 0
-8615 8669 0
-183 -8615 8616 0
-8616 8670 0
-184 -8616 8617 0
-8617 8671 0
-185 -8617 8618 0
-8618 8672 0
-186 -8618 8619 0
-8619 8673 0
-187 -8619 8620 0
-8620 8674 0
-188 -8620 8621 0
-8621 8675 0
-189 -8621 8622 0
-8622 8676 0
-190 -8622 8623 0
-8623 8677 0
-191 -8623 8624 0
-8624 8678 0
-192 -8624 8625 0
-8625 8679 0
-193 -8625 8626 0
-8626 8680 0
-194 -8626 8627 0
-8627 8681 0
-195 -8627 8628 0
-8628 8682 0
-196 -8628 8629 0
-8629 8683 0
-197 -8629 8630 0
-8630 8684 0
-198 -8630 8631 0
-8631 8685 0
-199 -8631 8632 0
-8632 8686 0
-200 -8632 8633 0
-8633 8687 0
-201 -8633 8634 0
-8634 8688 0
-202 -8634 8635 0
-8635 8689 0
-203 -8635 8636 0
-8636 8690 0
-204 -8636 8637 0
-8637 8691 0
-205 -8637 8638 0
-8638 8692 0
-206 -8638 8639 0
-8639 8693 0
-207 -8639 0
-154 8640 0
-8640 8694 0
-155 -8640 8641 0
-8641 8695 0
-156 -8641 8642 0
-8642 8696 0
-157 -8642 8643 0
-8643 8697 0
-158 -8643 8644 0
-8644 8698 0
-159 -8644 8645 0
-8645 8699 0
-160 -8645 8646 0
-8646 8700 0
-161 -8646 8647 0
-8647 8701 0
-162 -8647 8648 0
-8648 8702 0
-163 -8648 8649 0
-8649 8703 0
-164 -8649 8650 0
-8650 8704 0
-165 -8650 8651 0
-8651 8705 0
-166 -8651 8652 0
-8652 8706 0
-167 -8652 8653 0
-8653 8707 0
-168 -8653 8654 0
-8654 8708 0
-169 -8654 8655 0
-8655 8709 0
-170 -8655 8656 0
-8656 8710 0
-171 -8656 8657 0
-8657 8711 0
-172 -8657 8658 0
-8658 8712 0
-173 -8658 8659 0
-8659 8713 0
-174 -8659 8660 0
-8660 8714 0
-175 -8660 8661 0
-8661 8715 0
-176 -8661 8662 0
-8662 8716 0
-177 -8662 8663 0
-8663 8717 0
-178 -8663 8664 0
-8664 8718 0
-179 -8664 8665 0
-8665 8719 0
-180 -8665 8666 0
-8666 8720 0
-181 -8666 8667 0
-8667 8721 0
-182 -8667 8668 0
-8668 8722 0
-183 -8668 8669 0
-8669 8723 0
-184 -8669 8670 0
-8670 8724 0
-185 -8670 8671 0
-8671 8725 0
-186 -8671 8672 0
-8672 8726 0
-187 -8672 8673 0
-8673 8727 0
-188 -8673 8674 0
-8674 8728 0
-189 -8674 8675 0
-8675 8729 0
-190 -8675 8676 0
-8676 8730 0
-191 -8676 8677 0
-8677 8731 0
-192 -8677 8678 0
-8678 8732 0
-193 -8678 8679 0
-8679 8733 0
-194 -8679 8680 0
-8680 8734 0
-195 -8680 8681 0
-8681 8735 0
-196 -8681 8682 0
-8682 8736 0
-197 -8682 8683 0
-8683 8737 0
-198 -8683 8684 0
-8684 8738 0
-199 -8684 8685 0
-8685 8739 0
-200 -8685 8686 0
-8686 8740 0
-201 -8686 8687 0
-8687 8741 0
-202 -8687 8688 0
-8688 8742 0
-203 -8688 8689 0
-8689 8743 0
-204 -8689 8690 0
-8690 8744 0
-205 -8690 8691 0
-8691 8745 0
-206 -8691 8692 0
-8692 8746 0
-207 -8692 8693 0
-8693 8747 0
-208 -8693 0
-155 8694 0
-8694 8748 0
-156 -8694 8695 0
-8695 8749 0
-157 -8695 8696 0
-8696 8750 0
-158 -8696 8697 0
-8697 8751 0
-159 -8697 8698 0
-8698 8752 0
-160 -8698 8699 0
-8699 8753 0
-161 -8699 8700 0
-8700 8754 0
-162 -8700 8701 0
-8701 8755 0
-163 -8701 8702 0
-8702 8756 0
-164 -8702 8703 0
-8703 8757 0
-165 -8703 8704 0
-8704 8758 0
-166 -8704 8705 0
-8705 8759 0
-167 -8705 8706 0
-8706 8760 0
-168 -8706 8707 0
-8707 8761 0
-169 -8707 8708 0
-8708 8762 0
-170 -8708 8709 0
-8709 8763 0
-171 -8709 8710 0
-8710 8764 0
-172 -8710 8711 0
-8711 8765 0
-173 -8711 8712 0
-8712 8766 0
-174 -8712 8713 0
-8713 8767 0
-175 -8713 8714 0
-8714 8768 0
-176 -8714 8715 0
-8715 8769 0
-177 -8715 8716 0
-8716 8770 0
-178 -8716 8717 0
-8717 8771 0
-179 -8717 8718 0
-8718 8772 0
-180 -8718 8719 0
-8719 8773 0
-181 -8719 8720 0
-8720 8774 0
-182 -8720 8721 0
-8721 8775 0
-183 -8721 8722 0
-8722 8776 0
-184 -8722 8723 0
-8723 8777 0
-185 -8723 8724 0
-8724 8778 0
-186 -8724 8725 0
-8725 8779 0
-187 -8725 8726 0
-8726 8780 0
-188 -8726 8727 0
-8727 8781 0
-189 -8727 8728 0
-8728 8782 0
-190 -8728 8729 0
-8729 8783 0
-191 -8729 8730 0
-8730 8784 0
-192 -8730 8731 0
-8731 8785 0
-193 -8731 8732 0
-8732 8786 0
-194 -8732 8733 0
-8733 8787 0
-195 -8733 8734 0
-8734 8788 0
-196 -8734 8735 0
-8735 8789 0
-197 -8735 8736 0
-8736 8790 0
-198 -8736 8737 0
-8737 8791 0
-199 -8737 8738 0
-8738 8792 0
-200 -8738 8739 0
-8739 8793 0
-201 -8739 8740 0
-8740 8794 0
-202 -8740 8741 0
-8741 8795 0
-203 -8741 8742 0
-8742 8796 0
-204 -8742 8743 0
-8743 8797 0
-205 -8743 8744 0
-8744 8798 0
-206 -8744 8745 0
-8745 8799 0
-207 -8745 8746 0
-8746 8800 0
-208 -8746 8747 0
-8747 8801 0
-209 -8747 0
-156 8748 0
-8748 8802 0
-157 -8748 8749 0
-8749 8803 0
-158 -8749 8750 0
-8750 8804 0
-159 -8750 8751 0
-8751 8805 0
-160 -8751 8752 0
-8752 8806 0
-161 -8752 8753 0
-8753 8807 0
-162 -8753 8754 0
-8754 8808 0
-163 -8754 8755 0
-8755 8809 0
-164 -8755 8756 0
-8756 8810 0
-165 -8756 8757 0
-8757 8811 0
-166 -8757 8758 0
-8758 8812 0
-167 -8758 8759 0
-8759 8813 0
-168 -8759 8760 0
-8760 8814 0
-169 -8760 8761 0
-8761 8815 0
-170 -8761 8762 0
-8762 8816 0
-171 -8762 8763 0
-8763 8817 0
-172 -8763 8764 0
-8764 8818 0
-173 -8764 8765 0
-8765 8819 0
-174 -8765 8766 0
-8766 8820 0
-175 -8766 8767 0
-8767 8821 0
-176 -8767 8768 0
-8768 8822 0
-177 -8768 8769 0
-8769 8823 0
-178 -8769 8770 0
-8770 8824 0
-179 -8770 8771 0
-8771 8825 0
-180 -8771 8772 0
-8772 8826 0
-181 -8772 8773 0
-8773 8827 0
-182 -8773 8774 0
-8774 8828 0
-183 -8774 8775 0
-8775 8829 0
-184 -8775 8776 0
-8776 8830 0
-185 -8776 8777 0
-8777 8831 0
-186 -8777 8778 0
-8778 8832 0
-187 -8778 8779 0
-8779 8833 0
-188 -8779 8780 0
-8780 8834 0
-189 -8780 8781 0
-8781 8835 0
-190 -8781 8782 0
-8782 8836 0
-191 -8782 8783 0
-8783 8837 0
-192 -8783 8784 0
-8784 8838 0
-193 -8784 8785 0
-8785 8839 0
-194 -8785 8786 0
-8786 8840 0
-195 -8786 8787 0
-8787 8841 0
-196 -8787 8788 0
-8788 8842 0
-197 -8788 8789 0
-8789 8843 0
-198 -8789 8790 0
-8790 8844 0
-199 -8790 8791 0
-8791 8845 0
-200 -8791 8792 0
-8792 8846 0
-201 -8792 8793 0
-8793 8847 0
-202 -8793 8794 0
-8794 8848 0
-203 -8794 8795 0
-8795 8849 0
-204 -8795 8796 0
-8796 8850 0
-205 -8796 8797 0
-8797 8851 0
-206 -8797 8798 0
-8798 8852 0
-207 -8798 8799 0
-8799 8853 0
-208 -8799 8800 0
-8800 8854 0
-209 -8800 8801 0
-8801 8855 0
-210 -8801 0
-157 8802 0
-8802 8856 0
-158 -8802 8803 0
-8803 8857 0
-159 -8803 8804 0
-8804 8858 0
-160 -8804 8805 0
-8805 8859 0
-161 -8805 8806 0
-8806 8860 0
-162 -8806 8807 0
-8807 8861 0
-163 -8807 8808 0
-8808 8862 0
-164 -8808 8809 0
-8809 8863 0
-165 -8809 8810 0
-8810 8864 0
-166 -8810 8811 0
-8811 8865 0
-167 -8811 8812 0
-8812 8866 0
-168 -8812 8813 0
-8813 8867 0
-169 -8813 8814 0
-8814 8868 0
-170 -8814 8815 0
-8815 8869 0
-171 -8815 8816 0
-8816 8870 0
-172 -8816 8817 0
-8817 8871 0
-173 -8817 8818 0
-8818 8872 0
-174 -8818 8819 0
-8819 8873 0
-175 -8819 8820 0
-8820 8874 0
-176 -8820 8821 0
-8821 8875 0
-177 -8821 8822 0
-8822 8876 0
-178 -8822 8823 0
-8823 8877 0
-179 -8823 8824 0
-8824 8878 0
-180 -8824 8825 0
-8825 8879 0
-181 -8825 8826 0
-8826 8880 0
-182 -8826 8827 0
-8827 8881 0
-183 -8827 8828 0
-8828 8882 0
-184 -8828 8829 0
-8829 8883 0
-185 -8829 8830 0
-8830 8884 0
-186 -8830 8831 0
-8831 8885 0
-187 -8831 8832 0
-8832 8886 0
-188 -8832 8833 0
-8833 8887 0
-189 -8833 8834 0
-8834 8888 0
-190 -8834 8835 0
-8835 8889 0
-191 -8835 8836 0
-8836 8890 0
-192 -8836 8837 0
-8837 8891 0
-193 -8837 8838 0
-8838 8892 0
-194 -8838 8839 0
-8839 8893 0
-195 -8839 8840 0
-8840 8894 0
-196 -8840 8841 0
-8841 8895 0
-197 -8841 8842 0
-8842 8896 0
-198 -8842 8843 0
-8843 8897 0
-199 -8843 8844 0
-8844 8898 0
-200 -8844 8845 0
-8845 8899 0
-201 -8845 8846 0
-8846 8900 0
-202 -8846 8847 0
-8847 8901 0
-203 -8847 8848 0
-8848 8902 0
-204 -8848 8849 0
-8849 8903 0
-205 -8849 8850 0
-8850 8904 0
-206 -8850 8851 0
-8851 8905 0
-207 -8851 8852 0
-8852 8906 0
-208 -8852 8853 0
-8853 8907 0
-209 -8853 8854 0
-8854 8908 0
-210 -8854 8855 0
-8855 8909 0
-211 -8855 0
-158 8856 0
-8856 8910 0
-159 -8856 8857 0
-8857 8911 0
-160 -8857 8858 0
-8858 8912 0
-161 -8858 8859 0
-8859 8913 0
-162 -8859 8860 0
-8860 8914 0
-163 -8860 8861 0
-8861 8915 0
-164 -8861 8862 0
-8862 8916 0
-165 -8862 8863 0
-8863 8917 0
-166 -8863 8864 0
-8864 8918 0
-167 -8864 8865 0
-8865 8919 0
-168 -8865 8866 0
-8866 8920 0
-169 -8866 8867 0
-8867 8921 0
-170 -8867 8868 0
-8868 8922 0
-171 -8868 8869 0
-8869 8923 0
-172 -8869 8870 0
-8870 8924 0
-173 -8870 8871 0
-8871 8925 0
-174 -8871 8872 0
-8872 8926 0
-175 -8872 8873 0
-8873 8927 0
-176 -8873 8874 0
-8874 8928 0
-177 -8874 8875 0
-8875 8929 0
-178 -8875 8876 0
-8876 8930 0
-179 -8876 8877 0
-8877 8931 0
-180 -8877 8878 0
-8878 8932 0
-181 -8878 8879 0
-8879 8933 0
-182 -8879 8880 0
-8880 8934 0
-183 -8880 8881 0
-8881 8935 0
-184 -8881 8882 0
-8882 8936 0
-185 -8882 8883 0
-8883 8937 0
-186 -8883 8884 0
-8884 8938 0
-187 -8884 8885 0
-8885 8939 0
-188 -8885 8886 0
-8886 8940 0
-189 -8886 8887 0
-8887 8941 0
-190 -8887 8888 0
-8888 8942 0
-191 -8888 8889 0
-8889 8943 0
-192 -8889 8890 0
-8890 8944 0
-193 -8890 8891 0
-8891 8945 0
-194 -8891 8892 0
-8892 8946 0
-195 -8892 8893 0
-8893 8947 0
-196 -8893 8894 0
-8894 8948 0
-197 -8894 8895 0
-8895 8949 0
-198 -8895 8896 0
-8896 8950 0
-199 -8896 8897 0
-8897 8951 0
-200 -8897 8898 0
-8898 8952 0
-201 -8898 8899 0
-8899 8953 0
-202 -8899 8900 0
-8900 8954 0
-203 -8900 8901 0
-8901 8955 0
-204 -8901 8902 0
-8902 8956 0
-205 -8902 8903 0
-8903 8957 0
-206 -8903 8904 0
-8904 8958 0
-207 -8904 8905 0
-8905 8959 0
-208 -8905 8906 0
-8906 8960 0
-209 -8906 8907 0
-8907 8961 0
-210 -8907 8908 0
-8908 8962 0
-211 -8908 8909 0
-8909 8963 0
-212 -8909 0
-159 8910 0
-8910 8964 0
-160 -8910 8911 0
-8911 8965 0
-161 -8911 8912 0
-8912 8966 0
-162 -8912 8913 0
-8913 8967 0
-163 -8913 8914 0
-8914 8968 0
-164 -8914 8915 0
-8915 8969 0
-165 -8915 8916 0
-8916 8970 0
-166 -8916 8917 0
-8917 8971 0
-167 -8917 8918 0
-8918 8972 0
-168 -8918 8919 0
-8919 8973 0
-169 -8919 8920 0
-8920 8974 0
-170 -8920 8921 0
-8921 8975 0
-171 -8921 8922 0
-8922 8976 0
-172 -8922 8923 0
-8923 8977 0
-173 -8923 8924 0
-8924 8978 0
-174 -8924 8925 0
-8925 8979 0
-175 -8925 8926 0
-8926 8980 0
-176 -8926 8927 0
-8927 8981 0
-177 -8927 8928 0
-8928 8982 0
-178 -8928 8929 0
-8929 8983 0
-179 -8929 8930 0
-8930 8984 0
-180 -8930 8931 0
-8931 8985 0
-181 -8931 8932 0
-8932 8986 0
-182 -8932 8933 0
-8933 8987 0
-183 -8933 8934 0
-8934 8988 0
-184 -8934 8935 0
-8935 8989 0
-185 -8935 8936 0
-8936 8990 0
-186 -8936 8937 0
-8937 8991 0
-187 -8937 8938 0
-8938 8992 0
-188 -8938 8939 0
-8939 8993 0
-189 -8939 8940 0
-8940 8994 0
-190 -8940 8941 0
-8941 8995 0
-191 -8941 8942 0
-8942 8996 0
-192 -8942 8943 0
-8943 8997 0
-193 -8943 8944 0
-8944 8998 0
-194 -8944 8945 0
-8945 8999 0
-195 -8945 8946 0
-8946 9000 0
-196 -8946 8947 0
-8947 9001 0
-197 -8947 8948 0
-8948 9002 0
-198 -8948 8949 0
-8949 9003 0
-199 -8949 8950 0
-8950 9004 0
-200 -8950 8951 0
-8951 9005 0
-201 -8951 8952 0
-8952 9006 0
-202 -8952 8953 0
-8953 9007 0
-203 -8953 8954 0
-8954 9008 0
-204 -8954 8955 0
-8955 9009 0
-205 -8955 8956 0
-8956 9010 0
-206 -8956 8957 0
-8957 9011 0
-207 -8957 8958 0
-8958 9012 0
-208 -8958 8959 0
-8959 9013 0
-209 -8959 8960 0
-8960 9014 0
-210 -8960 8961 0
-8961 9015 0
-211 -8961 8962 0
-8962 9016 0
-212 -8962 8963 0
-8963 9017 0
-213 -8963 0
-160 8964 0
-8964 9018 0
-161 -8964 8965 0
-8965 9019 0
-162 -8965 8966 0
-8966 9020 0
-163 -8966 8967 0
-8967 9021 0
-164 -8967 8968 0
-8968 9022 0
-165 -8968 8969 0
-8969 9023 0
-166 -8969 8970 0
-8970 9024 0
-167 -8970 8971 0
-8971 9025 0
-168 -8971 8972 0
-8972 9026 0
-169 -8972 8973 0
-8973 9027 0
-170 -8973 8974 0
-8974 9028 0
-171 -8974 8975 0
-8975 9029 0
-172 -8975 8976 0
-8976 9030 0
-173 -8976 8977 0
-8977 9031 0
-174 -8977 8978 0
-8978 9032 0
-175 -8978 8979 0
-8979 9033 0
-176 -8979 8980 0
-8980 9034 0
-177 -8980 8981 0
-8981 9035 0
-178 -8981 8982 0
-8982 9036 0
-179 -8982 8983 0
-8983 9037 0
-180 -8983 8984 0
-8984 9038 0
-181 -8984 8985 0
-8985 9039 0
-182 -8985 8986 0
-8986 9040 0
-183 -8986 8987 0
-8987 9041 0
-184 -8987 8988 0
-8988 9042 0
-185 -8988 8989 0
-8989 9043 0
-186 -8989 8990 0
-8990 9044 0
-187 -8990 8991 0
-8991 9045 0
-188 -8991 8992 0
-8992 9046 0
-189 -8992 8993 0
-8993 9047 0
-190 -8993 8994 0
-8994 9048 0
-191 -8994 8995 0
-8995 9049 0
-192 -8995 8996 0
-8996 9050 0
-193 -8996 8997 0
-8997 9051 0
-194 -8997 8998 0
-8998 9052 0
-195 -8998 8999 0
-8999 9053 0
-196 -8999 9000 0
-9000 9054 0
-197 -9000 9001 0
-9001 9055 0
-198 -9001 9002 0
-9002 9056 0
-199 -9002 9003 0
-9003 9057 0
-200 -9003 9004 0
-9004 9058 0
-201 -9004 9005 0
-9005 9059 0
-202 -9005 9006 0
-9006 9060 0
-203 -9006 9007 0
-9007 9061 0
-204 -9007 9008 0
-9008 9062 0
-205 -9008 9009 0
-9009 9063 0
-206 -9009 9010 0
-9010 9064 0
-207 -9010 9011 0
-9011 9065 0
-208 -9011 9012 0
-9012 9066 0
-209 -9012 9013 0
-9013 9067 0
-210 -9013 9014 0
-9014 9068 0
-211 -9014 9015 0
-9015 9069 0
-212 -9015 9016 0
-9016 9070 0
-213 -9016 9017 0
-9017 9071 0
-214 -9017 0
-161 9018 0
-9018 9072 0
-162 -9018 9019 0
-9019 9073 0
-163 -9019 9020 0
-9020 9074 0
-164 -9020 9021 0
-9021 9075 0
-165 -9021 9022 0
-9022 9076 0
-166 -9022 9023 0
-9023 9077 0
-167 -9023 9024 0
-9024 9078 0
-168 -9024 9025 0
-9025 9079 0
-169 -9025 9026 0
-9026 9080 0
-170 -9026 9027 0
-9027 9081 0
-171 -9027 9028 0
-9028 9082 0
-172 -9028 9029 0
-9029 9083 0
-173 -9029 9030 0
-9030 9084 0
-174 -9030 9031 0
-9031 9085 0
-175 -9031 9032 0
-9032 9086 0
-176 -9032 9033 0
-9033 9087 0
-177 -9033 9034 0
-9034 9088 0
-178 -9034 9035 0
-9035 9089 0
-179 -9035 9036 0
-9036 9090 0
-180 -9036 9037 0
-9037 9091 0
-181 -9037 9038 0
-9038 9092 0
-182 -9038 9039 0
-9039 9093 0
-183 -9039 9040 0
-9040 9094 0
-184 -9040 9041 0
-9041 9095 0
-185 -9041 9042 0
-9042 9096 0
-186 -9042 9043 0
-9043 9097 0
-187 -9043 9044 0
-9044 9098 0
-188 -9044 9045 0
-9045 9099 0
-189 -9045 9046 0
-9046 9100 0
-190 -9046 9047 0
-9047 9101 0
-191 -9047 9048 0
-9048 9102 0
-192 -9048 9049 0
-9049 9103 0
-193 -9049 9050 0
-9050 9104 0
-194 -9050 9051 0
-9051 9105 0
-195 -9051 9052 0
-9052 9106 0
-196 -9052 9053 0
-9053 9107 0
-197 -9053 9054 0
-9054 9108 0
-198 -9054 9055 0
-9055 9109 0
-199 -9055 9056 0
-9056 9110 0
-200 -9056 9057 0
-9057 9111 0
-201 -9057 9058 0
-9058 9112 0
-202 -9058 9059 0
-9059 9113 0
-203 -9059 9060 0
-9060 9114 0
-204 -9060 9061 0
-9061 9115 0
-205 -9061 9062 0
-9062 9116 0
-206 -9062 9063 0
-9063 9117 0
-207 -9063 9064 0
-9064 9118 0
-208 -9064 9065 0
-9065 9119 0
-209 -9065 9066 0
-9066 9120 0
-210 -9066 9067 0
-9067 9121 0
-211 -9067 9068 0
-9068 9122 0
-212 -9068 9069 0
-9069 9123 0
-213 -9069 9070 0
-9070 9124 0
-214 -9070 9071 0
-9071 9125 0
-215 -9071 0
-162 9072 0
-9072 9126 0
-163 -9072 9073 0
-9073 9127 0
-164 -9073 9074 0
-9074 9128 0
-165 -9074 9075 0
-9075 9129 0
-166 -9075 9076 0
-9076 9130 0
-167 -9076 9077 0
-9077 9131 0
-168 -9077 9078 0
-9078 9132 0
-169 -9078 9079 0
-9079 9133 0
-170 -9079 9080 0
-9080 9134 0
-171 -9080 9081 0
-9081 9135 0
-172 -9081 9082 0
-9082 9136 0
-173 -9082 9083 0
-9083 9137 0
-174 -9083 9084 0
-9084 9138 0
-175 -9084 9085 0
-9085 9139 0
-176 -9085 9086 0
-9086 9140 0
-177 -9086 9087 0
-9087 9141 0
-178 -9087 9088 0
-9088 9142 0
-179 -9088 9089 0
-9089 9143 0
-180 -9089 9090 0
-9090 9144 0
-181 -9090 9091 0
-9091 9145 0
-182 -9091 9092 0
-9092 9146 0
-183 -9092 9093 0
-9093 9147 0
-184 -9093 9094 0
-9094 9148 0
-185 -9094 9095 0
-9095 9149 0
-186 -9095 9096 0
-9096 9150 0
-187 -9096 9097 0
-9097 9151 0
-188 -9097 9098 0
-9098 9152 0
-189 -9098 9099 0
-9099 9153 0
-190 -9099 9100 0
-9100 9154 0
-191 -9100 9101 0
-9101 9155 0
-192 -9101 9102 0
-9102 9156 0
-193 -9102 9103 0
-9103 9157 0
-194 -9103 9104 0
-9104 9158 0
-195 -9104 9105 0
-9105 9159 0
-196 -9105 9106 0
-9106 9160 0
-197 -9106 9107 0
-9107 9161 0
-198 -9107 9108 0
-9108 9162 0
-199 -9108 9109 0
-9109 9163 0
-200 -9109 9110 0
-9110 9164 0
-201 -9110 9111 0
-9111 9165 0
-202 -9111 9112 0
-9112 9166 0
-203 -9112 9113 0
-9113 9167 0
-204 -9113 9114 0
-9114 9168 0
-205 -9114 9115 0
-9115 9169 0
-206 -9115 9116 0
-9116 9170 0
-207 -9116 9117 0
-9117 9171 0
-208 -9117 9118 0
-9118 9172 0
-209 -9118 9119 0
-9119 9173 0
-210 -9119 9120 0
-9120 9174 0
-211 -9120 9121 0
-9121 9175 0
-212 -9121 9122 0
-9122 9176 0
-213 -9122 9123 0
-9123 9177 0
-214 -9123 9124 0
-9124 9178 0
-215 -9124 9125 0
-9125 9179 0
-216 -9125 0
-163 9126 0
-9126 9180 0
-164 -9126 9127 0
-9127 9181 0
-165 -9127 9128 0
-9128 9182 0
-166 -9128 9129 0
-9129 9183 0
-167 -9129 9130 0
-9130 9184 0
-168 -9130 9131 0
-9131 9185 0
-169 -9131 9132 0
-9132 9186 0
-170 -9132 9133 0
-9133 9187 0
-171 -9133 9134 0
-9134 9188 0
-172 -9134 9135 0
-9135 9189 0
-173 -9135 9136 0
-9136 9190 0
-174 -9136 9137 0
-9137 9191 0
-175 -9137 9138 0
-9138 9192 0
-176 -9138 9139 0
-9139 9193 0
-177 -9139 9140 0
-9140 9194 0
-178 -9140 9141 0
-9141 9195 0
-179 -9141 9142 0
-9142 9196 0
-180 -9142 9143 0
-9143 9197 0
-181 -9143 9144 0
-9144 9198 0
-182 -9144 9145 0
-9145 9199 0
-183 -9145 9146 0
-9146 9200 0
-184 -9146 9147 0
-9147 9201 0
-185 -9147 9148 0
-9148 9202 0
-186 -9148 9149 0
-9149 9203 0
-187 -9149 9150 0
-9150 9204 0
-188 -9150 9151 0
-9151 9205 0
-189 -9151 9152 0
-9152 9206 0
-190 -9152 9153 0
-9153 9207 0
-191 -9153 9154 0
-9154 9208 0
-192 -9154 9155 0
-9155 9209 0
-193 -9155 9156 0
-9156 9210 0
-194 -9156 9157 0
-9157 9211 0
-195 -9157 9158 0
-9158 9212 0
-196 -9158 9159 0
-9159 9213 0
-197 -9159 9160 0
-9160 9214 0
-198 -9160 9161 0
-9161 9215 0
-199 -9161 9162 0
-9162 9216 0
-200 -9162 9163 0
-9163 9217 0
-201 -9163 9164 0
-9164 9218 0
-202 -9164 9165 0
-9165 9219 0
-203 -9165 9166 0
-9166 9220 0
-204 -9166 9167 0
-9167 9221 0
-205 -9167 9168 0
-9168 9222 0
-206 -9168 9169 0
-9169 9223 0
-207 -9169 9170 0
-9170 9224 0
-208 -9170 9171 0
-9171 9225 0
-209 -9171 9172 0
-9172 9226 0
-210 -9172 9173 0
-9173 9227 0
-211 -9173 9174 0
-9174 9228 0
-212 -9174 9175 0
-9175 9229 0
-213 -9175 9176 0
-9176 9230 0
-214 -9176 9177 0
-9177 9231 0
-215 -9177 9178 0
-9178 9232 0
-216 -9178 9179 0
-9179 9233 0
-217 -9179 0
-164 9180 0
-9180 9234 0
-165 -9180 9181 0
-9181 9235 0
-166 -9181 9182 0
-9182 9236 0
-167 -9182 9183 0
-9183 9237 0
-168 -9183 9184 0
-9184 9238 0
-169 -9184 9185 0
-9185 9239 0
-170 -9185 9186 0
-9186 9240 0
-171 -9186 9187 0
-9187 9241 0
-172 -9187 9188 0
-9188 9242 0
-173 -9188 9189 0
-9189 9243 0
-174 -9189 9190 0
-9190 9244 0
-175 -9190 9191 0
-9191 9245 0
-176 -9191 9192 0
-9192 9246 0
-177 -9192 9193 0
-9193 9247 0
-178 -9193 9194 0
-9194 9248 0
-179 -9194 9195 0
-9195 9249 0
-180 -9195 9196 0
-9196 9250 0
-181 -9196 9197 0
-9197 9251 0
-182 -9197 9198 0
-9198 9252 0
-183 -9198 9199 0
-9199 9253 0
-184 -9199 9200 0
-9200 9254 0
-185 -9200 9201 0
-9201 9255 0
-186 -9201 9202 0
-9202 9256 0
-187 -9202 9203 0
-9203 9257 0
-188 -9203 9204 0
-9204 9258 0
-189 -9204 9205 0
-9205 9259 0
-190 -9205 9206 0
-9206 9260 0
-191 -9206 9207 0
-9207 9261 0
-192 -9207 9208 0
-9208 9262 0
-193 -9208 9209 0
-9209 9263 0
-194 -9209 9210 0
-9210 9264 0
-195 -9210 9211 0
-9211 9265 0
-196 -9211 9212 0
-9212 9266 0
-197 -9212 9213 0
-9213 9267 0
-198 -9213 9214 0
-9214 9268 0
-199 -9214 9215 0
-9215 9269 0
-200 -9215 9216 0
-9216 9270 0
-201 -9216 9217 0
-9217 9271 0
-202 -9217 9218 0
-9218 9272 0
-203 -9218 9219 0
-9219 9273 0
-204 -9219 9220 0
-9220 9274 0
-205 -9220 9221 0
-9221 9275 0
-206 -9221 9222 0
-9222 9276 0
-207 -9222 9223 0
-9223 9277 0
-208 -9223 9224 0
-9224 9278 0
-209 -9224 9225 0
-9225 9279 0
-210 -9225 9226 0
-9226 9280 0
-211 -9226 9227 0
-9227 9281 0
-212 -9227 9228 0
-9228 9282 0
-213 -9228 9229 0
-9229 9283 0
-214 -9229 9230 0
-9230 9284 0
-215 -9230 9231 0
-9231 9285 0
-216 -9231 9232 0
-9232 9286 0
-217 -9232 9233 0
-9233 9287 0
-218 -9233 0
-165 9234 0
-9234 9288 0
-166 -9234 9235 0
-9235 9289 0
-167 -9235 9236 0
-9236 9290 0
-168 -9236 9237 0
-9237 9291 0
-169 -9237 9238 0
-9238 9292 0
-170 -9238 9239 0
-9239 9293 0
-171 -9239 9240 0
-9240 9294 0
-172 -9240 9241 0
-9241 9295 0
-173 -9241 9242 0
-9242 9296 0
-174 -9242 9243 0
-9243 9297 0
-175 -9243 9244 0
-9244 9298 0
-176 -9244 9245 0
-9245 9299 0
-177 -9245 9246 0
-9246 9300 0
-178 -9246 9247 0
-9247 9301 0
-179 -9247 9248 0
-9248 9302 0
-180 -9248 9249 0
-9249 9303 0
-181 -9249 9250 0
-9250 9304 0
-182 -9250 9251 0
-9251 9305 0
-183 -9251 9252 0
-9252 9306 0
-184 -9252 9253 0
-9253 9307 0
-185 -9253 9254 0
-9254 9308 0
-186 -9254 9255 0
-9255 9309 0
-187 -9255 9256 0
-9256 9310 0
-188 -9256 9257 0
-9257 9311 0
-189 -9257 9258 0
-9258 9312 0
-190 -9258 9259 0
-9259 9313 0
-191 -9259 9260 0
-9260 9314 0
-192 -9260 9261 0
-9261 9315 0
-193 -9261 9262 0
-9262 9316 0
-194 -9262 9263 0
-9263 9317 0
-195 -9263 9264 0
-9264 9318 0
-196 -9264 9265 0
-9265 9319 0
-197 -9265 9266 0
-9266 9320 0
-198 -9266 9267 0
-9267 9321 0
-199 -9267 9268 0
-9268 9322 0
-200 -9268 9269 0
-9269 9323 0
-201 -9269 9270 0
-9270 9324 0
-202 -9270 9271 0
-9271 9325 0
-203 -9271 9272 0
-9272 9326 0
-204 -9272 9273 0
-9273 9327 0
-205 -9273 9274 0
-9274 9328 0
-206 -9274 9275 0
-9275 9329 0
-207 -9275 9276 0
-9276 9330 0
-208 -9276 9277 0
-9277 9331 0
-209 -9277 9278 0
-9278 9332 0
-210 -9278 9279 0
-9279 9333 0
-211 -9279 9280 0
-9280 9334 0
-212 -9280 9281 0
-9281 9335 0
-213 -9281 9282 0
-9282 9336 0
-214 -9282 9283 0
-9283 9337 0
-215 -9283 9284 0
-9284 9338 0
-216 -9284 9285 0
-9285 9339 0
-217 -9285 9286 0
-9286 9340 0
-218 -9286 9287 0
-9287 9341 0
-219 -9287 0
-166 9288 0
-9288 9342 0
-167 -9288 9289 0
-9289 9343 0
-168 -9289 9290 0
-9290 9344 0
-169 -9290 9291 0
-9291 9345 0
-170 -9291 9292 0
-9292 9346 0
-171 -9292 9293 0
-9293 9347 0
-172 -9293 9294 0
-9294 9348 0
-173 -9294 9295 0
-9295 9349 0
-174 -9295 9296 0
-9296 9350 0
-175 -9296 9297 0
-9297 9351 0
-176 -9297 9298 0
-9298 9352 0
-177 -9298 9299 0
-9299 9353 0
-178 -9299 9300 0
-9300 9354 0
-179 -9300 9301 0
-9301 9355 0
-180 -9301 9302 0
-9302 9356 0
-181 -9302 9303 0
-9303 9357 0
-182 -9303 9304 0
-9304 9358 0
-183 -9304 9305 0
-9305 9359 0
-184 -9305 9306 0
-9306 9360 0
-185 -9306 9307 0
-9307 9361 0
-186 -9307 9308 0
-9308 9362 0
-187 -9308 9309 0
-9309 9363 0
-188 -9309 9310 0
-9310 9364 0
-189 -9310 9311 0
-9311 9365 0
-190 -9311 9312 0
-9312 9366 0
-191 -9312 9313 0
-9313 9367 0
-192 -9313 9314 0
-9314 9368 0
-193 -9314 9315 0
-9315 9369 0
-194 -9315 9316 0
-9316 9370 0
-195 -9316 9317 0
-9317 9371 0
-196 -9317 9318 0
-9318 9372 0
-197 -9318 9319 0
-9319 9373 0
-198 -9319 9320 0
-9320 9374 0
-199 -9320 9321 0
-9321 9375 0
-200 -9321 9322 0
-9322 9376 0
-201 -9322 9323 0
-9323 9377 0
-202 -9323 9324 0
-9324 9378 0
-203 -9324 9325 0
-9325 9379 0
-204 -9325 9326 0
-9326 9380 0
-205 -9326 9327 0
-9327 9381 0
-206 -9327 9328 0
-9328 9382 0
-207 -9328 9329 0
-9329 9383 0
-208 -9329 9330 0
-9330 9384 0
-209 -9330 9331 0
-9331 9385 0
-210 -9331 9332 0
-9332 9386 0
-211 -9332 9333 0
-9333 9387 0
-212 -9333 9334 0
-9334 9388 0
-213 -9334 9335 0
-9335 9389 0
-214 -9335 9336 0
-9336 9390 0
-215 -9336 9337 0
-9337 9391 0
-216 -9337 9338 0
-9338 9392 0
-217 -9338 9339 0
-9339 9393 0
-218 -9339 9340 0
-9340 9394 0
-219 -9340 9341 0
-9341 9395 0
-220 -9341 0
-167 9342 0
-9342 9396 0
-168 -9342 9343 0
-9343 9397 0
-169 -9343 9344 0
-9344 9398 0
-170 -9344 9345 0
-9345 9399 0
-171 -9345 9346 0
-9346 9400 0
-172 -9346 9347 0
-9347 9401 0
-173 -9347 9348 0
-9348 9402 0
-174 -9348 9349 0
-9349 9403 0
-175 -9349 9350 0
-9350 9404 0
-176 -9350 9351 0
-9351 9405 0
-177 -9351 9352 0
-9352 9406 0
-178 -9352 9353 0
-9353 9407 0
-179 -9353 9354 0
-9354 9408 0
-180 -9354 9355 0
-9355 9409 0
-181 -9355 9356 0
-9356 9410 0
-182 -9356 9357 0
-9357 9411 0
-183 -9357 9358 0
-9358 9412 0
-184 -9358 9359 0
-9359 9413 0
-185 -9359 9360 0
-9360 9414 0
-186 -9360 9361 0
-9361 9415 0
-187 -9361 9362 0
-9362 9416 0
-188 -9362 9363 0
-9363 9417 0
-189 -9363 9364 0
-9364 9418 0
-190 -9364 9365 0
-9365 9419 0
-191 -9365 9366 0
-9366 9420 0
-192 -9366 9367 0
-9367 9421 0
-193 -9367 9368 0
-9368 9422 0
-194 -9368 9369 0
-9369 9423 0
-195 -9369 9370 0
-9370 9424 0
-196 -9370 9371 0
-9371 9425 0
-197 -9371 9372 0
-9372 9426 0
-198 -9372 9373 0
-9373 9427 0
-199 -9373 9374 0
-9374 9428 0
-200 -9374 9375 0
-9375 9429 0
-201 -9375 9376 0
-9376 9430 0
-202 -9376 9377 0
-9377 9431 0
-203 -9377 9378 0
-9378 9432 0
-204 -9378 9379 0
-9379 9433 0
-205 -9379 9380 0
-9380 9434 0
-206 -9380 9381 0
-9381 9435 0
-207 -9381 9382 0
-9382 9436 0
-208 -9382 9383 0
-9383 9437 0
-209 -9383 9384 0
-9384 9438 0
-210 -9384 9385 0
-9385 9439 0
-211 -9385 9386 0
-9386 9440 0
-212 -9386 9387 0
-9387 9441 0
-213 -9387 9388 0
-9388 9442 0
-214 -9388 9389 0
-9389 9443 0
-215 -9389 9390 0
-9390 9444 0
-216 -9390 9391 0
-9391 9445 0
-217 -9391 9392 0
-9392 9446 0
-218 -9392 9393 0
-9393 9447 0
-219 -9393 9394 0
-9394 9448 0
-220 -9394 9395 0
-9395 9449 0
-221 -9395 0
-168 9396 0
-9396 9450 0
-169 -9396 9397 0
-9397 9451 0
-170 -9397 9398 0
-9398 9452 0
-171 -9398 9399 0
-9399 9453 0
-172 -9399 9400 0
-9400 9454 0
-173 -9400 9401 0
-9401 9455 0
-174 -9401 9402 0
-9402 9456 0
-175 -9402 9403 0
-9403 9457 0
-176 -9403 9404 0
-9404 9458 0
-177 -9404 9405 0
-9405 9459 0
-178 -9405 9406 0
-9406 9460 0
-179 -9406 9407 0
-9407 9461 0
-180 -9407 9408 0
-9408 9462 0
-181 -9408 9409 0
-9409 9463 0
-182 -9409 9410 0
-9410 9464 0
-183 -9410 9411 0
-9411 9465 0
-184 -9411 9412 0
-9412 9466 0
-185 -9412 9413 0
-9413 9467 0
-186 -9413 9414 0
-9414 9468 0
-187 -9414 9415 0
-9415 9469 0
-188 -9415 9416 0
-9416 9470 0
-189 -9416 9417 0
-9417 9471 0
-190 -9417 9418 0
-9418 9472 0
-191 -9418 9419 0
-9419 9473 0
-192 -9419 9420 0
-9420 9474 0
-193 -9420 9421 0
-9421 9475 0
-194 -9421 9422 0
-9422 9476 0
-195 -9422 9423 0
-9423 9477 0
-196 -9423 9424 0
-9424 9478 0
-197 -9424 9425 0
-9425 9479 0
-198 -9425 9426 0
-9426 9480 0
-199 -9426 9427 0
-9427 9481 0
-200 -9427 9428 0
-9428 9482 0
-201 -9428 9429 0
-9429 9483 0
-202 -9429 9430 0
-9430 9484 0
-203 -9430 9431 0
-9431 9485 0
-204 -9431 9432 0
-9432 9486 0
-205 -9432 9433 0
-9433 9487 0
-206 -9433 9434 0
-9434 9488 0
-207 -9434 9435 0
-9435 9489 0
-208 -9435 9436 0
-9436 9490 0
-209 -9436 9437 0
-9437 9491 0
-210 -9437 9438 0
-9438 9492 0
-211 -9438 9439 0
-9439 9493 0
-212 -9439 9440 0
-9440 9494 0
-213 -9440 9441 0
-9441 9495 0
-214 -9441 9442 0
-9442 9496 0
-215 -9442 9443 0
-9443 9497 0
-216 -9443 9444 0
-9444 9498 0
-217 -9444 9445 0
-9445 9499 0
-218 -9445 9446 0
-9446 9500 0
-219 -9446 9447 0
-9447 9501 0
-220 -9447 9448 0
-9448 9502 0
-221 -9448 9449 0
-9449 9503 0
-222 -9449 0
-169 9450 0
-9450 9504 0
-170 -9450 9451 0
-9451 9505 0
-171 -9451 9452 0
-9452 9506 0
-172 -9452 9453 0
-9453 9507 0
-173 -9453 9454 0
-9454 9508 0
-174 -9454 9455 0
-9455 9509 0
-175 -9455 9456 0
-9456 9510 0
-176 -9456 9457 0
-9457 9511 0
-177 -9457 9458 0
-9458 9512 0
-178 -9458 9459 0
-9459 9513 0
-179 -9459 9460 0
-9460 9514 0
-180 -9460 9461 0
-9461 9515 0
-181 -9461 9462 0
-9462 9516 0
-182 -9462 9463 0
-9463 9517 0
-183 -9463 9464 0
-9464 9518 0
-184 -9464 9465 0
-9465 9519 0
-185 -9465 9466 0
-9466 9520 0
-186 -9466 9467 0
-9467 9521 0
-187 -9467 9468 0
-9468 9522 0
-188 -9468 9469 0
-9469 9523 0
-189 -9469 9470 0
-9470 9524 0
-190 -9470 9471 0
-9471 9525 0
-191 -9471 9472 0
-9472 9526 0
-192 -9472 9473 0
-9473 9527 0
-193 -9473 9474 0
-9474 9528 0
-194 -9474 9475 0
-9475 9529 0
-195 -9475 9476 0
-9476 9530 0
-196 -9476 9477 0
-9477 9531 0
-197 -9477 9478 0
-9478 9532 0
-198 -9478 9479 0
-9479 9533 0
-199 -9479 9480 0
-9480 9534 0
-200 -9480 9481 0
-9481 9535 0
-201 -9481 9482 0
-9482 9536 0
-202 -9482 9483 0
-9483 9537 0
-203 -9483 9484 0
-9484 9538 0
-204 -9484 9485 0
-9485 9539 0
-205 -9485 9486 0
-9486 9540 0
-206 -9486 9487 0
-9487 9541 0
-207 -9487 9488 0
-9488 9542 0
-208 -9488 9489 0
-9489 9543 0
-209 -9489 9490 0
-9490 9544 0
-210 -9490 9491 0
-9491 9545 0
-211 -9491 9492 0
-9492 9546 0
-212 -9492 9493 0
-9493 9547 0
-213 -9493 9494 0
-9494 9548 0
-214 -9494 9495 0
-9495 9549 0
-215 -9495 9496 0
-9496 9550 0
-216 -9496 9497 0
-9497 9551 0
-217 -9497 9498 0
-9498 9552 0
-218 -9498 9499 0
-9499 9553 0
-219 -9499 9500 0
-9500 9554 0
-220 -9500 9501 0
-9501 9555 0
-221 -9501 9502 0
-9502 9556 0
-222 -9502 9503 0
-9503 9557 0
-223 -9503 0
-170 9504 0
-9504 9558 0
-171 -9504 9505 0
-9505 9559 0
-172 -9505 9506 0
-9506 9560 0
-173 -9506 9507 0
-9507 9561 0
-174 -9507 9508 0
-9508 9562 0
-175 -9508 9509 0
-9509 9563 0
-176 -9509 9510 0
-9510 9564 0
-177 -9510 9511 0
-9511 9565 0
-178 -9511 9512 0
-9512 9566 0
-179 -9512 9513 0
-9513 9567 0
-180 -9513 9514 0
-9514 9568 0
-181 -9514 9515 0
-9515 9569 0
-182 -9515 9516 0
-9516 9570 0
-183 -9516 9517 0
-9517 9571 0
-184 -9517 9518 0
-9518 9572 0
-185 -9518 9519 0
-9519 9573 0
-186 -9519 9520 0
-9520 9574 0
-187 -9520 9521 0
-9521 9575 0
-188 -9521 9522 0
-9522 9576 0
-189 -9522 9523 0
-9523 9577 0
-190 -9523 9524 0
-9524 9578 0
-191 -9524 9525 0
-9525 9579 0
-192 -9525 9526 0
-9526 9580 0
-193 -9526 9527 0
-9527 9581 0
-194 -9527 9528 0
-9528 9582 0
-195 -9528 9529 0
-9529 9583 0
-196 -9529 9530 0
-9530 9584 0
-197 -9530 9531 0
-9531 9585 0
-198 -9531 9532 0
-9532 9586 0
-199 -9532 9533 0
-9533 9587 0
-200 -9533 9534 0
-9534 9588 0
-201 -9534 9535 0
-9535 9589 0
-202 -9535 9536 0
-9536 9590 0
-203 -9536 9537 0
-9537 9591 0
-204 -9537 9538 0
-9538 9592 0
-205 -9538 9539 0
-9539 9593 0
-206 -9539 9540 0
-9540 9594 0
-207 -9540 9541 0
-9541 9595 0
-208 -9541 9542 0
-9542 9596 0
-209 -9542 9543 0
-9543 9597 0
-210 -9543 9544 0
-9544 9598 0
-211 -9544 9545 0
-9545 9599 0
-212 -9545 9546 0
-9546 9600 0
-213 -9546 9547 0
-9547 9601 0
-214 -9547 9548 0
-9548 9602 0
-215 -9548 9549 0
-9549 9603 0
-216 -9549 9550 0
-9550 9604 0
-217 -9550 9551 0
-9551 9605 0
-218 -9551 9552 0
-9552 9606 0
-219 -9552 9553 0
-9553 9607 0
-220 -9553 9554 0
-9554 9608 0
-221 -9554 9555 0
-9555 9609 0
-222 -9555 9556 0
-9556 9610 0
-223 -9556 9557 0
-9557 9611 0
-224 -9557 0
-171 9558 0
-9558 9612 0
-172 -9558 9559 0
-9559 9613 0
-173 -9559 9560 0
-9560 9614 0
-174 -9560 9561 0
-9561 9615 0
-175 -9561 9562 0
-9562 9616 0
-176 -9562 9563 0
-9563 9617 0
-177 -9563 9564 0
-9564 9618 0
-178 -9564 9565 0
-9565 9619 0
-179 -9565 9566 0
-9566 9620 0
-180 -9566 9567 0
-9567 9621 0
-181 -9567 9568 0
-9568 9622 0
-182 -9568 9569 0
-9569 9623 0
-183 -9569 9570 0
-9570 9624 0
-184 -9570 9571 0
-9571 9625 0
-185 -9571 9572 0
-9572 9626 0
-186 -9572 9573 0
-9573 9627 0
-187 -9573 9574 0
-9574 9628 0
-188 -9574 9575 0
-9575 9629 0
-189 -9575 9576 0
-9576 9630 0
-190 -9576 9577 0
-9577 9631 0
-191 -9577 9578 0
-9578 9632 0
-192 -9578 9579 0
-9579 9633 0
-193 -9579 9580 0
-9580 9634 0
-194 -9580 9581 0
-9581 9635 0
-195 -9581 9582 0
-9582 9636 0
-196 -9582 9583 0
-9583 9637 0
-197 -9583 9584 0
-9584 9638 0
-198 -9584 9585 0
-9585 9639 0
-199 -9585 9586 0
-9586 9640 0
-200 -9586 9587 0
-9587 9641 0
-201 -9587 9588 0
-9588 9642 0
-202 -9588 9589 0
-9589 9643 0
-203 -9589 9590 0
-9590 9644 0
-204 -9590 9591 0
-9591 9645 0
-205 -9591 9592 0
-9592 9646 0
-206 -9592 9593 0
-9593 9647 0
-207 -9593 9594 0
-9594 9648 0
-208 -9594 9595 0
-9595 9649 0
-209 -9595 9596 0
-9596 9650 0
-210 -9596 9597 0
-9597 9651 0
-211 -9597 9598 0
-9598 9652 0
-212 -9598 9599 0
-9599 9653 0
-213 -9599 9600 0
-9600 9654 0
-214 -9600 9601 0
-9601 9655 0
-215 -9601 9602 0
-9602 9656 0
-216 -9602 9603 0
-9603 9657 0
-217 -9603 9604 0
-9604 9658 0
-218 -9604 9605 0
-9605 9659 0
-219 -9605 9606 0
-9606 9660 0
-220 -9606 9607 0
-9607 9661 0
-221 -9607 9608 0
-9608 9662 0
-222 -9608 9609 0
-9609 9663 0
-223 -9609 9610 0
-9610 9664 0
-224 -9610 9611 0
-9611 9665 0
-225 -9611 0
-172 9612 0
-9612 9666 0
-173 -9612 9613 0
-9613 9667 0
-174 -9613 9614 0
-9614 9668 0
-175 -9614 9615 0
-9615 9669 0
-176 -9615 9616 0
-9616 9670 0
-177 -9616 9617 0
-9617 9671 0
-178 -9617 9618 0
-9618 9672 0
-179 -9618 9619 0
-9619 9673 0
-180 -9619 9620 0
-9620 9674 0
-181 -9620 9621 0
-9621 9675 0
-182 -9621 9622 0
-9622 9676 0
-183 -9622 9623 0
-9623 9677 0
-184 -9623 9624 0
-9624 9678 0
-185 -9624 9625 0
-9625 9679 0
-186 -9625 9626 0
-9626 9680 0
-187 -9626 9627 0
-9627 9681 0
-188 -9627 9628 0
-9628 9682 0
-189 -9628 9629 0
-9629 9683 0
-190 -9629 9630 0
-9630 9684 0
-191 -9630 9631 0
-9631 9685 0
-192 -9631 9632 0
-9632 9686 0
-193 -9632 9633 0
-9633 9687 0
-194 -9633 9634 0
-9634 9688 0
-195 -9634 9635 0
-9635 9689 0
-196 -9635 9636 0
-9636 9690 0
-197 -9636 9637 0
-9637 9691 0
-198 -9637 9638 0
-9638 9692 0
-199 -9638 9639 0
-9639 9693 0
-200 -9639 9640 0
-9640 9694 0
-201 -9640 9641 0
-9641 9695 0
-202 -9641 9642 0
-9642 9696 0
-203 -9642 9643 0
-9643 9697 0
-204 -9643 9644 0
-9644 9698 0
-205 -9644 9645 0
-9645 9699 0
-206 -9645 9646 0
-9646 9700 0
-207 -9646 9647 0
-9647 9701 0
-208 -9647 9648 0
-9648 9702 0
-209 -9648 9649 0
-9649 9703 0
-210 -9649 9650 0
-9650 9704 0
-211 -9650 9651 0
-9651 9705 0
-212 -9651 9652 0
-9652 9706 0
-213 -9652 9653 0
-9653 9707 0
-214 -9653 9654 0
-9654 9708 0
-215 -9654 9655 0
-9655 9709 0
-216 -9655 9656 0
-9656 9710 0
-217 -9656 9657 0
-9657 9711 0
-218 -9657 9658 0
-9658 9712 0
-219 -9658 9659 0
-9659 9713 0
-220 -9659 9660 0
-9660 9714 0
-221 -9660 9661 0
-9661 9715 0
-222 -9661 9662 0
-9662 9716 0
-223 -9662 9663 0
-9663 9717 0
-224 -9663 9664 0
-9664 9718 0
-225 -9664 9665 0
-9665 9719 0
-226 -9665 0
-173 9666 0
-9666 9720 0
-174 -9666 9667 0
-9667 9721 0
-175 -9667 9668 0
-9668 9722 0
-176 -9668 9669 0
-9669 9723 0
-177 -9669 9670 0
-9670 9724 0
-178 -9670 9671 0
-9671 9725 0
-179 -9671 9672 0
-9672 9726 0
-180 -9672 9673 0
-9673 9727 0
-181 -9673 9674 0
-9674 9728 0
-182 -9674 9675 0
-9675 9729 0
-183 -9675 9676 0
-9676 9730 0
-184 -9676 9677 0
-9677 9731 0
-185 -9677 9678 0
-9678 9732 0
-186 -9678 9679 0
-9679 9733 0
-187 -9679 9680 0
-9680 9734 0
-188 -9680 9681 0
-9681 9735 0
-189 -9681 9682 0
-9682 9736 0
-190 -9682 9683 0
-9683 9737 0
-191 -9683 9684 0
-9684 9738 0
-192 -9684 9685 0
-9685 9739 0
-193 -9685 9686 0
-9686 9740 0
-194 -9686 9687 0
-9687 9741 0
-195 -9687 9688 0
-9688 9742 0
-196 -9688 9689 0
-9689 9743 0
-197 -9689 9690 0
-9690 9744 0
-198 -9690 9691 0
-9691 9745 0
-199 -9691 9692 0
-9692 9746 0
-200 -9692 9693 0
-9693 9747 0
-201 -9693 9694 0
-9694 9748 0
-202 -9694 9695 0
-9695 9749 0
-203 -9695 9696 0
-9696 9750 0
-204 -9696 9697 0
-9697 9751 0
-205 -9697 9698 0
-9698 9752 0
-206 -9698 9699 0
-9699 9753 0
-207 -9699 9700 0
-9700 9754 0
-208 -9700 9701 0
-9701 9755 0
-209 -9701 9702 0
-9702 9756 0
-210 -9702 9703 0
-9703 9757 0
-211 -9703 9704 0
-9704 9758 0
-212 -9704 9705 0
-9705 9759 0
-213 -9705 9706 0
-9706 9760 0
-214 -9706 9707 0
-9707 9761 0
-215 -9707 9708 0
-9708 9762 0
-216 -9708 9709 0
-9709 9763 0
-217 -9709 9710 0
-9710 9764 0
-218 -9710 9711 0
-9711 9765 0
-219 -9711 9712 0
-9712 9766 0
-220 -9712 9713 0
-9713 9767 0
-221 -9713 9714 0
-9714 9768 0
-222 -9714 9715 0
-9715 9769 0
-223 -9715 9716 0
-9716 9770 0
-224 -9716 9717 0
-9717 9771 0
-225 -9717 9718 0
-9718 9772 0
-226 -9718 9719 0
-9719 9773 0
-227 -9719 0
-174 9720 0
-9720 9774 0
-175 -9720 9721 0
-9721 9775 0
-176 -9721 9722 0
-9722 9776 0
-177 -9722 9723 0
-9723 9777 0
-178 -9723 9724 0
-9724 9778 0
-179 -9724 9725 0
-9725 9779 0
-180 -9725 9726 0
-9726 9780 0
-181 -9726 9727 0
-9727 9781 0
-182 -9727 9728 0
-9728 9782 0
-183 -9728 9729 0
-9729 9783 0
-184 -9729 9730 0
-9730 9784 0
-185 -9730 9731 0
-9731 9785 0
-186 -9731 9732 0
-9732 9786 0
-187 -9732 9733 0
-9733 9787 0
-188 -9733 9734 0
-9734 9788 0
-189 -9734 9735 0
-9735 9789 0
-190 -9735 9736 0
-9736 9790 0
-191 -9736 9737 0
-9737 9791 0
-192 -9737 9738 0
-9738 9792 0
-193 -9738 9739 0
-9739 9793 0
-194 -9739 9740 0
-9740 9794 0
-195 -9740 9741 0
-9741 9795 0
-196 -9741 9742 0
-9742 9796 0
-197 -9742 9743 0
-9743 9797 0
-198 -9743 9744 0
-9744 9798 0
-199 -9744 9745 0
-9745 9799 0
-200 -9745 9746 0
-9746 9800 0
-201 -9746 9747 0
-9747 9801 0
-202 -9747 9748 0
-9748 9802 0
-203 -9748 9749 0
-9749 9803 0
-204 -9749 9750 0
-9750 9804 0
-205 -9750 9751 0
-9751 9805 0
-206 -9751 9752 0
-9752 9806 0
-207 -9752 9753 0
-9753 9807 0
-208 -9753 9754 0
-9754 9808 0
-209 -9754 9755 0
-9755 9809 0
-210 -9755 9756 0
-9756 9810 0
-211 -9756 9757 0
-9757 9811 0
-212 -9757 9758 0
-9758 9812 0
-213 -9758 9759 0
-9759 9813 0
-214 -9759 9760 0
-9760 9814 0
-215 -9760 9761 0
-9761 9815 0
-216 -9761 9762 0
-9762 9816 0
-217 -9762 9763 0
-9763 9817 0
-218 -9763 9764 0
-9764 9818 0
-219 -9764 9765 0
-9765 9819 0
-220 -9765 9766 0
-9766 9820 0
-221 -9766 9767 0
-9767 9821 0
-222 -9767 9768 0
-9768 9822 0
-223 -9768 9769 0
-9769 9823 0
-224 -9769 9770 0
-9770 9824 0
-225 -9770 9771 0
-9771 9825 0
-226 -9771 9772 0
-9772 9826 0
-227 -9772 9773 0
-9773 9827 0
-228 -9773 0
-175 9774 0
-9774 9828 0
-176 -9774 9775 0
-9775 9829 0
-177 -9775 9776 0
-9776 9830 0
-178 -9776 9777 0
-9777 9831 0
-179 -9777 9778 0
-9778 9832 0
-180 -9778 9779 0
-9779 9833 0
-181 -9779 9780 0
-9780 9834 0
-182 -9780 9781 0
-9781 9835 0
-183 -9781 9782 0
-9782 9836 0
-184 -9782 9783 0
-9783 9837 0
-185 -9783 9784 0
-9784 9838 0
-186 -9784 9785 0
-9785 9839 0
-187 -9785 9786 0
-9786 9840 0
-188 -9786 9787 0
-9787 9841 0
-189 -9787 9788 0
-9788 9842 0
-190 -9788 9789 0
-9789 9843 0
-191 -9789 9790 0
-9790 9844 0
-192 -9790 9791 0
-9791 9845 0
-193 -9791 9792 0
-9792 9846 0
-194 -9792 9793 0
-9793 9847 0
-195 -9793 9794 0
-9794 9848 0
-196 -9794 9795 0
-9795 9849 0
-197 -9795 9796 0
-9796 9850 0
-198 -9796 9797 0
-9797 9851 0
-199 -9797 9798 0
-9798 9852 0
-200 -9798 9799 0
-9799 9853 0
-201 -9799 9800 0
-9800 9854 0
-202 -9800 9801 0
-9801 9855 0
-203 -9801 9802 0
-9802 9856 0
-204 -9802 9803 0
-9803 9857 0
-205 -9803 9804 0
-9804 9858 0
-206 -9804 9805 0
-9805 9859 0
-207 -9805 9806 0
-9806 9860 0
-208 -9806 9807 0
-9807 9861 0
-209 -9807 9808 0
-9808 9862 0
-210 -9808 9809 0
-9809 9863 0
-211 -9809 9810 0
-9810 9864 0
-212 -9810 9811 0
-9811 9865 0
-213 -9811 9812 0
-9812 9866 0
-214 -9812 9813 0
-9813 9867 0
-215 -9813 9814 0
-9814 9868 0
-216 -9814 9815 0
-9815 9869 0
-217 -9815 9816 0
-9816 9870 0
-218 -9816 9817 0
-9817 9871 0
-219 -9817 9818 0
-9818 9872 0
-220 -9818 9819 0
-9819 9873 0
-221 -9819 9820 0
-9820 9874 0
-222 -9820 9821 0
-9821 9875 0
-223 -9821 9822 0
-9822 9876 0
-224 -9822 9823 0
-9823 9877 0
-225 -9823 9824 0
-9824 9878 0
-226 -9824 9825 0
-9825 9879 0
-227 -9825 9826 0
-9826 9880 0
-228 -9826 9827 0
-9827 9881 0
-229 -9827 0
-176 9828 0
-9828 9882 0
-177 -9828 9829 0
-9829 9883 0
-178 -9829 9830 0
-9830 9884 0
-179 -9830 9831 0
-9831 9885 0
-180 -9831 9832 0
-9832 9886 0
-181 -9832 9833 0
-9833 9887 0
-182 -9833 9834 0
-9834 9888 0
-183 -9834 9835 0
-9835 9889 0
-184 -9835 9836 0
-9836 9890 0
-185 -9836 9837 0
-9837 9891 0
-186 -9837 9838 0
-9838 9892 0
-187 -9838 9839 0
-9839 9893 0
-188 -9839 9840 0
-9840 9894 0
-189 -9840 9841 0
-9841 9895 0
-190 -9841 9842 0
-9842 9896 0
-191 -9842 9843 0
-9843 9897 0
-192 -9843 9844 0
-9844 9898 0
-193 -9844 9845 0
-9845 9899 0
-194 -9845 9846 0
-9846 9900 0
-195 -9846 9847 0
-9847 9901 0
-196 -9847 9848 0
-9848 9902 0
-197 -9848 9849 0
-9849 9903 0
-198 -9849 9850 0
-9850 9904 0
-199 -9850 9851 0
-9851 9905 0
-200 -9851 9852 0
-9852 9906 0
-201 -9852 9853 0
-9853 9907 0
-202 -9853 9854 0
-9854 9908 0
-203 -9854 9855 0
-9855 9909 0
-204 -9855 9856 0
-9856 9910 0
-205 -9856 9857 0
-9857 9911 0
-206 -9857 9858 0
-9858 9912 0
-207 -9858 9859 0
-9859 9913 0
-208 -9859 9860 0
-9860 9914 0
-209 -9860 9861 0
-9861 9915 0
-210 -9861 9862 0
-9862 9916 0
-211 -9862 9863 0
-9863 9917 0
-212 -9863 9864 0
-9864 9918 0
-213 -9864 9865 0
-9865 9919 0
-214 -9865 9866 0
-9866 9920 0
-215 -9866 9867 0
-9867 9921 0
-216 -9867 9868 0
-9868 9922 0
-217 -9868 9869 0
-9869 9923 0
-218 -9869 9870 0
-9870 9924 0
-219 -9870 9871 0
-9871 9925 0
-220 -9871 9872 0
-9872 9926 0
-221 -9872 9873 0
-9873 9927 0
-222 -9873 9874 0
-9874 9928 0
-223 -9874 9875 0
-9875 9929 0
-224 -9875 9876 0
-9876 9930 0
-225 -9876 9877 0
-9877 9931 0
-226 -9877 9878 0
-9878 9932 0
-227 -9878 9879 0
-9879 9933 0
-228 -9879 9880 0
-9880 9934 0
-229 -9880 9881 0
-9881 9935 0
-230 -9881 0
-177 9882 0
-9882 9936 0
-178 -9882 9883 0
-9883 9937 0
-179 -9883 9884 0
-9884 9938 0
-180 -9884 9885 0
-9885 9939 0
-181 -9885 9886 0
-9886 9940 0
-182 -9886 9887 0
-9887 9941 0
-183 -9887 9888 0
-9888 9942 0
-184 -9888 9889 0
-9889 9943 0
-185 -9889 9890 0
-9890 9944 0
-186 -9890 9891 0
-9891 9945 0
-187 -9891 9892 0
-9892 9946 0
-188 -9892 9893 0
-9893 9947 0
-189 -9893 9894 0
-9894 9948 0
-190 -9894 9895 0
-9895 9949 0
-191 -9895 9896 0
-9896 9950 0
-192 -9896 9897 0
-9897 9951 0
-193 -9897 9898 0
-9898 9952 0
-194 -9898 9899 0
-9899 9953 0
-195 -9899 9900 0
-9900 9954 0
-196 -9900 9901 0
-9901 9955 0
-197 -9901 9902 0
-9902 9956 0
-198 -9902 9903 0
-9903 9957 0
-199 -9903 9904 0
-9904 9958 0
-200 -9904 9905 0
-9905 9959 0
-201 -9905 9906 0
-9906 9960 0
-202 -9906 9907 0
-9907 9961 0
-203 -9907 9908 0
-9908 9962 0
-204 -9908 9909 0
-9909 9963 0
-205 -9909 9910 0
-9910 9964 0
-206 -9910 9911 0
-9911 9965 0
-207 -9911 9912 0
-9912 9966 0
-208 -9912 9913 0
-9913 9967 0
-209 -9913 9914 0
-9914 9968 0
-210 -9914 9915 0
-9915 9969 0
-211 -9915 9916 0
-9916 9970 0
-212 -9916 9917 0
-9917 9971 0
-213 -9917 9918 0
-9918 9972 0
-214 -9918 9919 0
-9919 9973 0
-215 -9919 9920 0
-9920 9974 0
-216 -9920 9921 0
-9921 9975 0
-217 -9921 9922 0
-9922 9976 0
-218 -9922 9923 0
-9923 9977 0
-219 -9923 9924 0
-9924 9978 0
-220 -9924 9925 0
-9925 9979 0
-221 -9925 9926 0
-9926 9980 0
-222 -9926 9927 0
-9927 9981 0
-223 -9927 9928 0
-9928 9982 0
-224 -9928 9929 0
-9929 9983 0
-225 -9929 9930 0
-9930 9984 0
-226 -9930 9931 0
-9931 9985 0
-227 -9931 9932 0
-9932 9986 0
-228 -9932 9933 0
-9933 9987 0
-229 -9933 9934 0
-9934 9988 0
-230 -9934 9935 0
-9935 9989 0
-231 -9935 0
-178 9936 0
-9936 9990 0
-179 -9936 9937 0
-9937 9991 0
-180 -9937 9938 0
-9938 9992 0
-181 -9938 9939 0
-9939 9993 0
-182 -9939 9940 0
-9940 9994 0
-183 -9940 9941 0
-9941 9995 0
-184 -9941 9942 0
-9942 9996 0
-185 -9942 9943 0
-9943 9997 0
-186 -9943 9944 0
-9944 9998 0
-187 -9944 9945 0
-9945 9999 0
-188 -9945 9946 0
-9946 10000 0
-189 -9946 9947 0
-9947 10001 0
-190 -9947 9948 0
-9948 10002 0
-191 -9948 9949 0
-9949 10003 0
-192 -9949 9950 0
-9950 10004 0
-193 -9950 9951 0
-9951 10005 0
-194 -9951 9952 0
-9952 10006 0
-195 -9952 9953 0
-9953 10007 0
-196 -9953 9954 0
-9954 10008 0
-197 -9954 9955 0
-9955 10009 0
-198 -9955 9956 0
-9956 10010 0
-199 -9956 9957 0
-9957 10011 0
-200 -9957 9958 0
-9958 10012 0
-201 -9958 9959 0
-9959 10013 0
-202 -9959 9960 0
-9960 10014 0
-203 -9960 9961 0
-9961 10015 0
-204 -9961 9962 0
-9962 10016 0
-205 -9962 9963 0
-9963 10017 0
-206 -9963 9964 0
-9964 10018 0
-207 -9964 9965 0
-9965 10019 0
-208 -9965 9966 0
-9966 10020 0
-209 -9966 9967 0
-9967 10021 0
-210 -9967 9968 0
-9968 10022 0
-211 -9968 9969 0
-9969 10023 0
-212 -9969 9970 0
-9970 10024 0
-213 -9970 9971 0
-9971 10025 0
-214 -9971 9972 0
-9972 10026 0
-215 -9972 9973 0
-9973 10027 0
-216 -9973 9974 0
-9974 10028 0
-217 -9974 9975 0
-9975 10029 0
-218 -9975 9976 0
-9976 10030 0
-219 -9976 9977 0
-9977 10031 0
-220 -9977 9978 0
-9978 10032 0
-221 -9978 9979 0
-9979 10033 0
-222 -9979 9980 0
-9980 10034 0
-223 -9980 9981 0
-9981 10035 0
-224 -9981 9982 0
-9982 10036 0
-225 -9982 9983 0
-9983 10037 0
-226 -9983 9984 0
-9984 10038 0
-227 -9984 9985 0
-9985 10039 0
-228 -9985 9986 0
-9986 10040 0
-229 -9986 9987 0
-9987 10041 0
-230 -9987 9988 0
-9988 10042 0
-231 -9988 9989 0
-9989 10043 0
-232 -9989 0
-179 9990 0
-9990 10044 0
-180 -9990 9991 0
-9991 10045 0
-181 -9991 9992 0
-9992 10046 0
-182 -9992 9993 0
-9993 10047 0
-183 -9993 9994 0
-9994 10048 0
-184 -9994 9995 0
-9995 10049 0
-185 -9995 9996 0
-9996 10050 0
-186 -9996 9997 0
-9997 10051 0
-187 -9997 9998 0
-9998 10052 0
-188 -9998 9999 0
-9999 10053 0
-189 -9999 10000 0
-10000 10054 0
-190 -10000 10001 0
-10001 10055 0
-191 -10001 10002 0
-10002 10056 0
-192 -10002 10003 0
-10003 10057 0
-193 -10003 10004 0
-10004 10058 0
-194 -10004 10005 0
-10005 10059 0
-195 -10005 10006 0
-10006 10060 0
-196 -10006 10007 0
-10007 10061 0
-197 -10007 10008 0
-10008 10062 0
-198 -10008 10009 0
-10009 10063 0
-199 -10009 10010 0
-10010 10064 0
-200 -10010 10011 0
-10011 10065 0
-201 -10011 10012 0
-10012 10066 0
-202 -10012 10013 0
-10013 10067 0
-203 -10013 10014 0
-10014 10068 0
-204 -10014 10015 0
-10015 10069 0
-205 -10015 10016 0
-10016 10070 0
-206 -10016 10017 0
-10017 10071 0
-207 -10017 10018 0
-10018 10072 0
-208 -10018 10019 0
-10019 10073 0
-209 -10019 10020 0
-10020 10074 0
-210 -10020 10021 0
-10021 10075 0
-211 -10021 10022 0
-10022 10076 0
-212 -10022 10023 0
-10023 10077 0
-213 -10023 10024 0
-10024 10078 0
-214 -10024 10025 0
-10025 10079 0
-215 -10025 10026 0
-10026 10080 0
-216 -10026 10027 0
-10027 10081 0
-217 -10027 10028 0
-10028 10082 0
-218 -10028 10029 0
-10029 10083 0
-219 -10029 10030 0
-10030 10084 0
-220 -10030 10031 0
-10031 10085 0
-221 -10031 10032 0
-10032 10086 0
-222 -10032 10033 0
-10033 10087 0
-223 -10033 10034 0
-10034 10088 0
-224 -10034 10035 0
-10035 10089 0
-225 -10035 10036 0
-10036 10090 0
-226 -10036 10037 0
-10037 10091 0
-227 -10037 10038 0
-10038 10092 0
-228 -10038 10039 0
-10039 10093 0
-229 -10039 10040 0
-10040 10094 0
-230 -10040 10041 0
-10041 10095 0
-231 -10041 10042 0
-10042 10096 0
-232 -10042 10043 0
-10043 10097 0
-233 -10043 0
-180 10044 0
-10044 10098 0
-181 -10044 10045 0
-10045 10099 0
-182 -10045 10046 0
-10046 10100 0
-183 -10046 10047 0
-10047 10101 0
-184 -10047 10048 0
-10048 10102 0
-185 -10048 10049 0
-10049 10103 0
-186 -10049 10050 0
-10050 10104 0
-187 -10050 10051 0
-10051 10105 0
-188 -10051 10052 0
-10052 10106 0
-189 -10052 10053 0
-10053 10107 0
-190 -10053 10054 0
-10054 10108 0
-191 -10054 10055 0
-10055 10109 0
-192 -10055 10056 0
-10056 10110 0
-193 -10056 10057 0
-10057 10111 0
-194 -10057 10058 0
-10058 10112 0
-195 -10058 10059 0
-10059 10113 0
-196 -10059 10060 0
-10060 10114 0
-197 -10060 10061 0
-10061 10115 0
-198 -10061 10062 0
-10062 10116 0
-199 -10062 10063 0
-10063 10117 0
-200 -10063 10064 0
-10064 10118 0
-201 -10064 10065 0
-10065 10119 0
-202 -10065 10066 0
-10066 10120 0
-203 -10066 10067 0
-10067 10121 0
-204 -10067 10068 0
-10068 10122 0
-205 -10068 10069 0
-10069 10123 0
-206 -10069 10070 0
-10070 10124 0
-207 -10070 10071 0
-10071 10125 0
-208 -10071 10072 0
-10072 10126 0
-209 -10072 10073 0
-10073 10127 0
-210 -10073 10074 0
-10074 10128 0
-211 -10074 10075 0
-10075 10129 0
-212 -10075 10076 0
-10076 10130 0
-213 -10076 10077 0
-10077 10131 0
-214 -10077 10078 0
-10078 10132 0
-215 -10078 10079 0
-10079 10133 0
-216 -10079 10080 0
-10080 10134 0
-217 -10080 10081 0
-10081 10135 0
-218 -10081 10082 0
-10082 10136 0
-219 -10082 10083 0
-10083 10137 0
-220 -10083 10084 0
-10084 10138 0
-221 -10084 10085 0
-10085 10139 0
-222 -10085 10086 0
-10086 10140 0
-223 -10086 10087 0
-10087 10141 0
-224 -10087 10088 0
-10088 10142 0
-225 -10088 10089 0
-10089 10143 0
-226 -10089 10090 0
-10090 10144 0
-227 -10090 10091 0
-10091 10145 0
-228 -10091 10092 0
-10092 10146 0
-229 -10092 10093 0
-10093 10147 0
-230 -10093 10094 0
-10094 10148 0
-231 -10094 10095 0
-10095 10149 0
-232 -10095 10096 0
-10096 10150 0
-233 -10096 10097 0
-10097 10151 0
-234 -10097 0
-181 10098 0
-10098 10152 0
-182 -10098 10099 0
-10099 10153 0
-183 -10099 10100 0
-10100 10154 0
-184 -10100 10101 0
-10101 10155 0
-185 -10101 10102 0
-10102 10156 0
-186 -10102 10103 0
-10103 10157 0
-187 -10103 10104 0
-10104 10158 0
-188 -10104 10105 0
-10105 10159 0
-189 -10105 10106 0
-10106 10160 0
-190 -10106 10107 0
-10107 10161 0
-191 -10107 10108 0
-10108 10162 0
-192 -10108 10109 0
-10109 10163 0
-193 -10109 10110 0
-10110 10164 0
-194 -10110 10111 0
-10111 10165 0
-195 -10111 10112 0
-10112 10166 0
-196 -10112 10113 0
-10113 10167 0
-197 -10113 10114 0
-10114 10168 0
-198 -10114 10115 0
-10115 10169 0
-199 -10115 10116 0
-10116 10170 0
-200 -10116 10117 0
-10117 10171 0
-201 -10117 10118 0
-10118 10172 0
-202 -10118 10119 0
-10119 10173 0
-203 -10119 10120 0
-10120 10174 0
-204 -10120 10121 0
-10121 10175 0
-205 -10121 10122 0
-10122 10176 0
-206 -10122 10123 0
-10123 10177 0
-207 -10123 10124 0
-10124 10178 0
-208 -10124 10125 0
-10125 10179 0
-209 -10125 10126 0
-10126 10180 0
-210 -10126 10127 0
-10127 10181 0
-211 -10127 10128 0
-10128 10182 0
-212 -10128 10129 0
-10129 10183 0
-213 -10129 10130 0
-10130 10184 0
-214 -10130 10131 0
-10131 10185 0
-215 -10131 10132 0
-10132 10186 0
-216 -10132 10133 0
-10133 10187 0
-217 -10133 10134 0
-10134 10188 0
-218 -10134 10135 0
-10135 10189 0
-219 -10135 10136 0
-10136 10190 0
-220 -10136 10137 0
-10137 10191 0
-221 -10137 10138 0
-10138 10192 0
-222 -10138 10139 0
-10139 10193 0
-223 -10139 10140 0
-10140 10194 0
-224 -10140 10141 0
-10141 10195 0
-225 -10141 10142 0
-10142 10196 0
-226 -10142 10143 0
-10143 10197 0
-227 -10143 10144 0
-10144 10198 0
-228 -10144 10145 0
-10145 10199 0
-229 -10145 10146 0
-10146 10200 0
-230 -10146 10147 0
-10147 10201 0
-231 -10147 10148 0
-10148 10202 0
-232 -10148 10149 0
-10149 10203 0
-233 -10149 10150 0
-10150 10204 0
-234 -10150 10151 0
-10151 10205 0
-235 -10151 0
-182 10152 0
-10152 10206 0
-183 -10152 10153 0
-10153 10207 0
-184 -10153 10154 0
-10154 10208 0
-185 -10154 10155 0
-10155 10209 0
-186 -10155 10156 0
-10156 10210 0
-187 -10156 10157 0
-10157 10211 0
-188 -10157 10158 0
-10158 10212 0
-189 -10158 10159 0
-10159 10213 0
-190 -10159 10160 0
-10160 10214 0
-191 -10160 10161 0
-10161 10215 0
-192 -10161 10162 0
-10162 10216 0
-193 -10162 10163 0
-10163 10217 0
-194 -10163 10164 0
-10164 10218 0
-195 -10164 10165 0
-10165 10219 0
-196 -10165 10166 0
-10166 10220 0
-197 -10166 10167 0
-10167 10221 0
-198 -10167 10168 0
-10168 10222 0
-199 -10168 10169 0
-10169 10223 0
-200 -10169 10170 0
-10170 10224 0
-201 -10170 10171 0
-10171 10225 0
-202 -10171 10172 0
-10172 10226 0
-203 -10172 10173 0
-10173 10227 0
-204 -10173 10174 0
-10174 10228 0
-205 -10174 10175 0
-10175 10229 0
-206 -10175 10176 0
-10176 10230 0
-207 -10176 10177 0
-10177 10231 0
-208 -10177 10178 0
-10178 10232 0
-209 -10178 10179 0
-10179 10233 0
-210 -10179 10180 0
-10180 10234 0
-211 -10180 10181 0
-10181 10235 0
-212 -10181 10182 0
-10182 10236 0
-213 -10182 10183 0
-10183 10237 0
-214 -10183 10184 0
-10184 10238 0
-215 -10184 10185 0
-10185 10239 0
-216 -10185 10186 0
-10186 10240 0
-217 -10186 10187 0
-10187 10241 0
-218 -10187 10188 0
-10188 10242 0
-219 -10188 10189 0
-10189 10243 0
-220 -10189 10190 0
-10190 10244 0
-221 -10190 10191 0
-10191 10245 0
-222 -10191 10192 0
-10192 10246 0
-223 -10192 10193 0
-10193 10247 0
-224 -10193 10194 0
-10194 10248 0
-225 -10194 10195 0
-10195 10249 0
-226 -10195 10196 0
-10196 10250 0
-227 -10196 10197 0
-10197 10251 0
-228 -10197 10198 0
-10198 10252 0
-229 -10198 10199 0
-10199 10253 0
-230 -10199 10200 0
-10200 10254 0
-231 -10200 10201 0
-10201 10255 0
-232 -10201 10202 0
-10202 10256 0
-233 -10202 10203 0
-10203 10257 0
-234 -10203 10204 0
-10204 10258 0
-235 -10204 10205 0
-10205 10259 0
-236 -10205 0
-183 10206 0
-10206 10260 0
-184 -10206 10207 0
-10207 10261 0
-185 -10207 10208 0
-10208 10262 0
-186 -10208 10209 0
-10209 10263 0
-187 -10209 10210 0
-10210 10264 0
-188 -10210 10211 0
-10211 10265 0
-189 -10211 10212 0
-10212 10266 0
-190 -10212 10213 0
-10213 10267 0
-191 -10213 10214 0
-10214 10268 0
-192 -10214 10215 0
-10215 10269 0
-193 -10215 10216 0
-10216 10270 0
-194 -10216 10217 0
-10217 10271 0
-195 -10217 10218 0
-10218 10272 0
-196 -10218 10219 0
-10219 10273 0
-197 -10219 10220 0
-10220 10274 0
-198 -10220 10221 0
-10221 10275 0
-199 -10221 10222 0
-10222 10276 0
-200 -10222 10223 0
-10223 10277 0
-201 -10223 10224 0
-10224 10278 0
-202 -10224 10225 0
-10225 10279 0
-203 -10225 10226 0
-10226 10280 0
-204 -10226 10227 0
-10227 10281 0
-205 -10227 10228 0
-10228 10282 0
-206 -10228 10229 0
-10229 10283 0
-207 -10229 10230 0
-10230 10284 0
-208 -10230 10231 0
-10231 10285 0
-209 -10231 10232 0
-10232 10286 0
-210 -10232 10233 0
-10233 10287 0
-211 -10233 10234 0
-10234 10288 0
-212 -10234 10235 0
-10235 10289 0
-213 -10235 10236 0
-10236 10290 0
-214 -10236 10237 0
-10237 10291 0
-215 -10237 10238 0
-10238 10292 0
-216 -10238 10239 0
-10239 10293 0
-217 -10239 10240 0
-10240 10294 0
-218 -10240 10241 0
-10241 10295 0
-219 -10241 10242 0
-10242 10296 0
-220 -10242 10243 0
-10243 10297 0
-221 -10243 10244 0
-10244 10298 0
-222 -10244 10245 0
-10245 10299 0
-223 -10245 10246 0
-10246 10300 0
-224 -10246 10247 0
-10247 10301 0
-225 -10247 10248 0
-10248 10302 0
-226 -10248 10249 0
-10249 10303 0
-227 -10249 10250 0
-10250 10304 0
-228 -10250 10251 0
-10251 10305 0
-229 -10251 10252 0
-10252 10306 0
-230 -10252 10253 0
-10253 10307 0
-231 -10253 10254 0
-10254 10308 0
-232 -10254 10255 0
-10255 10309 0
-233 -10255 10256 0
-10256 10310 0
-234 -10256 10257 0
-10257 10311 0
-235 -10257 10258 0
-10258 10312 0
-236 -10258 10259 0
-10259 10313 0
-237 -10259 0
-184 10260 0
-10260 10314 0
-185 -10260 10261 0
-10261 10315 0
-186 -10261 10262 0
-10262 10316 0
-187 -10262 10263 0
-10263 10317 0
-188 -10263 10264 0
-10264 10318 0
-189 -10264 10265 0
-10265 10319 0
-190 -10265 10266 0
-10266 10320 0
-191 -10266 10267 0
-10267 10321 0
-192 -10267 10268 0
-10268 10322 0
-193 -10268 10269 0
-10269 10323 0
-194 -10269 10270 0
-10270 10324 0
-195 -10270 10271 0
-10271 10325 0
-196 -10271 10272 0
-10272 10326 0
-197 -10272 10273 0
-10273 10327 0
-198 -10273 10274 0
-10274 10328 0
-199 -10274 10275 0
-10275 10329 0
-200 -10275 10276 0
-10276 10330 0
-201 -10276 10277 0
-10277 10331 0
-202 -10277 10278 0
-10278 10332 0
-203 -10278 10279 0
-10279 10333 0
-204 -10279 10280 0
-10280 10334 0
-205 -10280 10281 0
-10281 10335 0
-206 -10281 10282 0
-10282 10336 0
-207 -10282 10283 0
-10283 10337 0
-208 -10283 10284 0
-10284 10338 0
-209 -10284 10285 0
-10285 10339 0
-210 -10285 10286 0
-10286 10340 0
-211 -10286 10287 0
-10287 10341 0
-212 -10287 10288 0
-10288 10342 0
-213 -10288 10289 0
-10289 10343 0
-214 -10289 10290 0
-10290 10344 0
-215 -10290 10291 0
-10291 10345 0
-216 -10291 10292 0
-10292 10346 0
-217 -10292 10293 0
-10293 10347 0
-218 -10293 10294 0
-10294 10348 0
-219 -10294 10295 0
-10295 10349 0
-220 -10295 10296 0
-10296 10350 0
-221 -10296 10297 0
-10297 10351 0
-222 -10297 10298 0
-10298 10352 0
-223 -10298 10299 0
-10299 10353 0
-224 -10299 10300 0
-10300 10354 0
-225 -10300 10301 0
-10301 10355 0
-226 -10301 10302 0
-10302 10356 0
-227 -10302 10303 0
-10303 10357 0
-228 -10303 10304 0
-10304 10358 0
-229 -10304 10305 0
-10305 10359 0
-230 -10305 10306 0
-10306 10360 0
-231 -10306 10307 0
-10307 10361 0
-232 -10307 10308 0
-10308 10362 0
-233 -10308 10309 0
-10309 10363 0
-234 -10309 10310 0
-10310 10364 0
-235 -10310 10311 0
-10311 10365 0
-236 -10311 10312 0
-10312 10366 0
-237 -10312 10313 0
-10313 10367 0
-238 -10313 0
-185 10314 0
-10314 10368 0
-186 -10314 10315 0
-10315 10369 0
-187 -10315 10316 0
-10316 10370 0
-188 -10316 10317 0
-10317 10371 0
-189 -10317 10318 0
-10318 10372 0
-190 -10318 10319 0
-10319 10373 0
-191 -10319 10320 0
-10320 10374 0
-192 -10320 10321 0
-10321 10375 0
-193 -10321 10322 0
-10322 10376 0
-194 -10322 10323 0
-10323 10377 0
-195 -10323 10324 0
-10324 10378 0
-196 -10324 10325 0
-10325 10379 0
-197 -10325 10326 0
-10326 10380 0
-198 -10326 10327 0
-10327 10381 0
-199 -10327 10328 0
-10328 10382 0
-200 -10328 10329 0
-10329 10383 0
-201 -10329 10330 0
-10330 10384 0
-202 -10330 10331 0
-10331 10385 0
-203 -10331 10332 0
-10332 10386 0
-204 -10332 10333 0
-10333 10387 0
-205 -10333 10334 0
-10334 10388 0
-206 -10334 10335 0
-10335 10389 0
-207 -10335 10336 0
-10336 10390 0
-208 -10336 10337 0
-10337 10391 0
-209 -10337 10338 0
-10338 10392 0
-210 -10338 10339 0
-10339 10393 0
-211 -10339 10340 0
-10340 10394 0
-212 -10340 10341 0
-10341 10395 0
-213 -10341 10342 0
-10342 10396 0
-214 -10342 10343 0
-10343 10397 0
-215 -10343 10344 0
-10344 10398 0
-216 -10344 10345 0
-10345 10399 0
-217 -10345 10346 0
-10346 10400 0
-218 -10346 10347 0
-10347 10401 0
-219 -10347 10348 0
-10348 10402 0
-220 -10348 10349 0
-10349 10403 0
-221 -10349 10350 0
-10350 10404 0
-222 -10350 10351 0
-10351 10405 0
-223 -10351 10352 0
-10352 10406 0
-224 -10352 10353 0
-10353 10407 0
-225 -10353 10354 0
-10354 10408 0
-226 -10354 10355 0
-10355 10409 0
-227 -10355 10356 0
-10356 10410 0
-228 -10356 10357 0
-10357 10411 0
-229 -10357 10358 0
-10358 10412 0
-230 -10358 10359 0
-10359 10413 0
-231 -10359 10360 0
-10360 10414 0
-232 -10360 10361 0
-10361 10415 0
-233 -10361 10362 0
-10362 10416 0
-234 -10362 10363 0
-10363 10417 0
-235 -10363 10364 0
-10364 10418 0
-236 -10364 10365 0
-10365 10419 0
-237 -10365 10366 0
-10366 10420 0
-238 -10366 10367 0
-10367 10421 0
-239 -10367 0
-186 10368 0
-10368 10422 0
-187 -10368 10369 0
-10369 10423 0
-188 -10369 10370 0
-10370 10424 0
-189 -10370 10371 0
-10371 10425 0
-190 -10371 10372 0
-10372 10426 0
-191 -10372 10373 0
-10373 10427 0
-192 -10373 10374 0
-10374 10428 0
-193 -10374 10375 0
-10375 10429 0
-194 -10375 10376 0
-10376 10430 0
-195 -10376 10377 0
-10377 10431 0
-196 -10377 10378 0
-10378 10432 0
-197 -10378 10379 0
-10379 10433 0
-198 -10379 10380 0
-10380 10434 0
-199 -10380 10381 0
-10381 10435 0
-200 -10381 10382 0
-10382 10436 0
-201 -10382 10383 0
-10383 10437 0
-202 -10383 10384 0
-10384 10438 0
-203 -10384 10385 0
-10385 10439 0
-204 -10385 10386 0
-10386 10440 0
-205 -10386 10387 0
-10387 10441 0
-206 -10387 10388 0
-10388 10442 0
-207 -10388 10389 0
-10389 10443 0
-208 -10389 10390 0
-10390 10444 0
-209 -10390 10391 0
-10391 10445 0
-210 -10391 10392 0
-10392 10446 0
-211 -10392 10393 0
-10393 10447 0
-212 -10393 10394 0
-10394 10448 0
-213 -10394 10395 0
-10395 10449 0
-214 -10395 10396 0
-10396 10450 0
-215 -10396 10397 0
-10397 10451 0
-216 -10397 10398 0
-10398 10452 0
-217 -10398 10399 0
-10399 10453 0
-218 -10399 10400 0
-10400 10454 0
-219 -10400 10401 0
-10401 10455 0
-220 -10401 10402 0
-10402 10456 0
-221 -10402 10403 0
-10403 10457 0
-222 -10403 10404 0
-10404 10458 0
-223 -10404 10405 0
-10405 10459 0
-224 -10405 10406 0
-10406 10460 0
-225 -10406 10407 0
-10407 10461 0
-226 -10407 10408 0
-10408 10462 0
-227 -10408 10409 0
-10409 10463 0
-228 -10409 10410 0
-10410 10464 0
-229 -10410 10411 0
-10411 10465 0
-230 -10411 10412 0
-10412 10466 0
-231 -10412 10413 0
-10413 10467 0
-232 -10413 10414 0
-10414 10468 0
-233 -10414 10415 0
-10415 10469 0
-234 -10415 10416 0
-10416 10470 0
-235 -10416 10417 0
-10417 10471 0
-236 -10417 10418 0
-10418 10472 0
-237 -10418 10419 0
-10419 10473 0
-238 -10419 10420 0
-10420 10474 0
-239 -10420 10421 0
-10421 10475 0
-240 -10421 0
-187 10422 0
-10422 10476 0
-188 -10422 10423 0
-10423 10477 0
-189 -10423 10424 0
-10424 10478 0
-190 -10424 10425 0
-10425 10479 0
-191 -10425 10426 0
-10426 10480 0
-192 -10426 10427 0
-10427 10481 0
-193 -10427 10428 0
-10428 10482 0
-194 -10428 10429 0
-10429 10483 0
-195 -10429 10430 0
-10430 10484 0
-196 -10430 10431 0
-10431 10485 0
-197 -10431 10432 0
-10432 10486 0
-198 -10432 10433 0
-10433 10487 0
-199 -10433 10434 0
-10434 10488 0
-200 -10434 10435 0
-10435 10489 0
-201 -10435 10436 0
-10436 10490 0
-202 -10436 10437 0
-10437 10491 0
-203 -10437 10438 0
-10438 10492 0
-204 -10438 10439 0
-10439 10493 0
-205 -10439 10440 0
-10440 10494 0
-206 -10440 10441 0
-10441 10495 0
-207 -10441 10442 0
-10442 10496 0
-208 -10442 10443 0
-10443 10497 0
-209 -10443 10444 0
-10444 10498 0
-210 -10444 10445 0
-10445 10499 0
-211 -10445 10446 0
-10446 10500 0
-212 -10446 10447 0
-10447 10501 0
-213 -10447 10448 0
-10448 10502 0
-214 -10448 10449 0
-10449 10503 0
-215 -10449 10450 0
-10450 10504 0
-216 -10450 10451 0
-10451 10505 0
-217 -10451 10452 0
-10452 10506 0
-218 -10452 10453 0
-10453 10507 0
-219 -10453 10454 0
-10454 10508 0
-220 -10454 10455 0
-10455 10509 0
-221 -10455 10456 0
-10456 10510 0
-222 -10456 10457 0
-10457 10511 0
-223 -10457 10458 0
-10458 10512 0
-224 -10458 10459 0
-10459 10513 0
-225 -10459 10460 0
-10460 10514 0
-226 -10460 10461 0
-10461 10515 0
-227 -10461 10462 0
-10462 10516 0
-228 -10462 10463 0
-10463 10517 0
-229 -10463 10464 0
-10464 10518 0
-230 -10464 10465 0
-10465 10519 0
-231 -10465 10466 0
-10466 10520 0
-232 -10466 10467 0
-10467 10521 0
-233 -10467 10468 0
-10468 10522 0
-234 -10468 10469 0
-10469 10523 0
-235 -10469 10470 0
-10470 10524 0
-236 -10470 10471 0
-10471 10525 0
-237 -10471 10472 0
-10472 10526 0
-238 -10472 10473 0
-10473 10527 0
-239 -10473 10474 0
-10474 10528 0
-240 -10474 10475 0
-10475 10529 0
-241 -10475 0
-188 10476 0
-10476 10530 0
-189 -10476 10477 0
-10477 10531 0
-190 -10477 10478 0
-10478 10532 0
-191 -10478 10479 0
-10479 10533 0
-192 -10479 10480 0
-10480 10534 0
-193 -10480 10481 0
-10481 10535 0
-194 -10481 10482 0
-10482 10536 0
-195 -10482 10483 0
-10483 10537 0
-196 -10483 10484 0
-10484 10538 0
-197 -10484 10485 0
-10485 10539 0
-198 -10485 10486 0
-10486 10540 0
-199 -10486 10487 0
-10487 10541 0
-200 -10487 10488 0
-10488 10542 0
-201 -10488 10489 0
-10489 10543 0
-202 -10489 10490 0
-10490 10544 0
-203 -10490 10491 0
-10491 10545 0
-204 -10491 10492 0
-10492 10546 0
-205 -10492 10493 0
-10493 10547 0
-206 -10493 10494 0
-10494 10548 0
-207 -10494 10495 0
-10495 10549 0
-208 -10495 10496 0
-10496 10550 0
-209 -10496 10497 0
-10497 10551 0
-210 -10497 10498 0
-10498 10552 0
-211 -10498 10499 0
-10499 10553 0
-212 -10499 10500 0
-10500 10554 0
-213 -10500 10501 0
-10501 10555 0
-214 -10501 10502 0
-10502 10556 0
-215 -10502 10503 0
-10503 10557 0
-216 -10503 10504 0
-10504 10558 0
-217 -10504 10505 0
-10505 10559 0
-218 -10505 10506 0
-10506 10560 0
-219 -10506 10507 0
-10507 10561 0
-220 -10507 10508 0
-10508 10562 0
-221 -10508 10509 0
-10509 10563 0
-222 -10509 10510 0
-10510 10564 0
-223 -10510 10511 0
-10511 10565 0
-224 -10511 10512 0
-10512 10566 0
-225 -10512 10513 0
-10513 10567 0
-226 -10513 10514 0
-10514 10568 0
-227 -10514 10515 0
-10515 10569 0
-228 -10515 10516 0
-10516 10570 0
-229 -10516 10517 0
-10517 10571 0
-230 -10517 10518 0
-10518 10572 0
-231 -10518 10519 0
-10519 10573 0
-232 -10519 10520 0
-10520 10574 0
-233 -10520 10521 0
-10521 10575 0
-234 -10521 10522 0
-10522 10576 0
-235 -10522 10523 0
-10523 10577 0
-236 -10523 10524 0
-10524 10578 0
-237 -10524 10525 0
-10525 10579 0
-238 -10525 10526 0
-10526 10580 0
-239 -10526 10527 0
-10527 10581 0
-240 -10527 10528 0
-10528 10582 0
-241 -10528 10529 0
-10529 10583 0
-242 -10529 0
-189 10530 0
-10530 10584 0
-190 -10530 10531 0
-10531 10585 0
-191 -10531 10532 0
-10532 10586 0
-192 -10532 10533 0
-10533 10587 0
-193 -10533 10534 0
-10534 10588 0
-194 -10534 10535 0
-10535 10589 0
-195 -10535 10536 0
-10536 10590 0
-196 -10536 10537 0
-10537 10591 0
-197 -10537 10538 0
-10538 10592 0
-198 -10538 10539 0
-10539 10593 0
-199 -10539 10540 0
-10540 10594 0
-200 -10540 10541 0
-10541 10595 0
-201 -10541 10542 0
-10542 10596 0
-202 -10542 10543 0
-10543 10597 0
-203 -10543 10544 0
-10544 10598 0
-204 -10544 10545 0
-10545 10599 0
-205 -10545 10546 0
-10546 10600 0
-206 -10546 10547 0
-10547 10601 0
-207 -10547 10548 0
-10548 10602 0
-208 -10548 10549 0
-10549 10603 0
-209 -10549 10550 0
-10550 10604 0
-210 -10550 10551 0
-10551 10605 0
-211 -10551 10552 0
-10552 10606 0
-212 -10552 10553 0
-10553 10607 0
-213 -10553 10554 0
-10554 10608 0
-214 -10554 10555 0
-10555 10609 0
-215 -10555 10556 0
-10556 10610 0
-216 -10556 10557 0
-10557 10611 0
-217 -10557 10558 0
-10558 10612 0
-218 -10558 10559 0
-10559 10613 0
-219 -10559 10560 0
-10560 10614 0
-220 -10560 10561 0
-10561 10615 0
-221 -10561 10562 0
-10562 10616 0
-222 -10562 10563 0
-10563 10617 0
-223 -10563 10564 0
-10564 10618 0
-224 -10564 10565 0
-10565 10619 0
-225 -10565 10566 0
-10566 10620 0
-226 -10566 10567 0
-10567 10621 0
-227 -10567 10568 0
-10568 10622 0
-228 -10568 10569 0
-10569 10623 0
-229 -10569 10570 0
-10570 10624 0
-230 -10570 10571 0
-10571 10625 0
-231 -10571 10572 0
-10572 10626 0
-232 -10572 10573 0
-10573 10627 0
-233 -10573 10574 0
-10574 10628 0
-234 -10574 10575 0
-10575 10629 0
-235 -10575 10576 0
-10576 10630 0
-236 -10576 10577 0
-10577 10631 0
-237 -10577 10578 0
-10578 10632 0
-238 -10578 10579 0
-10579 10633 0
-239 -10579 10580 0
-10580 10634 0
-240 -10580 10581 0
-10581 10635 0
-241 -10581 10582 0
-10582 10636 0
-242 -10582 10583 0
-10583 10637 0
-243 -10583 0
-190 10584 0
-10584 10638 0
-191 -10584 10585 0
-10585 10639 0
-192 -10585 10586 0
-10586 10640 0
-193 -10586 10587 0
-10587 10641 0
-194 -10587 10588 0
-10588 10642 0
-195 -10588 10589 0
-10589 10643 0
-196 -10589 10590 0
-10590 10644 0
-197 -10590 10591 0
-10591 10645 0
-198 -10591 10592 0
-10592 10646 0
-199 -10592 10593 0
-10593 10647 0
-200 -10593 10594 0
-10594 10648 0
-201 -10594 10595 0
-10595 10649 0
-202 -10595 10596 0
-10596 10650 0
-203 -10596 10597 0
-10597 10651 0
-204 -10597 10598 0
-10598 10652 0
-205 -10598 10599 0
-10599 10653 0
-206 -10599 10600 0
-10600 10654 0
-207 -10600 10601 0
-10601 10655 0
-208 -10601 10602 0
-10602 10656 0
-209 -10602 10603 0
-10603 10657 0
-210 -10603 10604 0
-10604 10658 0
-211 -10604 10605 0
-10605 10659 0
-212 -10605 10606 0
-10606 10660 0
-213 -10606 10607 0
-10607 10661 0
-214 -10607 10608 0
-10608 10662 0
-215 -10608 10609 0
-10609 10663 0
-216 -10609 10610 0
-10610 10664 0
-217 -10610 10611 0
-10611 10665 0
-218 -10611 10612 0
-10612 10666 0
-219 -10612 10613 0
-10613 10667 0
-220 -10613 10614 0
-10614 10668 0
-221 -10614 10615 0
-10615 10669 0
-222 -10615 10616 0
-10616 10670 0
-223 -10616 10617 0
-10617 10671 0
-224 -10617 10618 0
-10618 10672 0
-225 -10618 10619 0
-10619 10673 0
-226 -10619 10620 0
-10620 10674 0
-227 -10620 10621 0
-10621 10675 0
-228 -10621 10622 0
-10622 10676 0
-229 -10622 10623 0
-10623 10677 0
-230 -10623 10624 0
-10624 10678 0
-231 -10624 10625 0
-10625 10679 0
-232 -10625 10626 0
-10626 10680 0
-233 -10626 10627 0
-10627 10681 0
-234 -10627 10628 0
-10628 10682 0
-235 -10628 10629 0
-10629 10683 0
-236 -10629 10630 0
-10630 10684 0
-237 -10630 10631 0
-10631 10685 0
-238 -10631 10632 0
-10632 10686 0
-239 -10632 10633 0
-10633 10687 0
-240 -10633 10634 0
-10634 10688 0
-241 -10634 10635 0
-10635 10689 0
-242 -10635 10636 0
-10636 10690 0
-243 -10636 10637 0
-10637 10691 0
-244 -10637 0
-191 10638 0
-10638 10692 0
-192 -10638 10639 0
-10639 10693 0
-193 -10639 10640 0
-10640 10694 0
-194 -10640 10641 0
-10641 10695 0
-195 -10641 10642 0
-10642 10696 0
-196 -10642 10643 0
-10643 10697 0
-197 -10643 10644 0
-10644 10698 0
-198 -10644 10645 0
-10645 10699 0
-199 -10645 10646 0
-10646 10700 0
-200 -10646 10647 0
-10647 10701 0
-201 -10647 10648 0
-10648 10702 0
-202 -10648 10649 0
-10649 10703 0
-203 -10649 10650 0
-10650 10704 0
-204 -10650 10651 0
-10651 10705 0
-205 -10651 10652 0
-10652 10706 0
-206 -10652 10653 0
-10653 10707 0
-207 -10653 10654 0
-10654 10708 0
-208 -10654 10655 0
-10655 10709 0
-209 -10655 10656 0
-10656 10710 0
-210 -10656 10657 0
-10657 10711 0
-211 -10657 10658 0
-10658 10712 0
-212 -10658 10659 0
-10659 10713 0
-213 -10659 10660 0
-10660 10714 0
-214 -10660 10661 0
-10661 10715 0
-215 -10661 10662 0
-10662 10716 0
-216 -10662 10663 0
-10663 10717 0
-217 -10663 10664 0
-10664 10718 0
-218 -10664 10665 0
-10665 10719 0
-219 -10665 10666 0
-10666 10720 0
-220 -10666 10667 0
-10667 10721 0
-221 -10667 10668 0
-10668 10722 0
-222 -10668 10669 0
-10669 10723 0
-223 -10669 10670 0
-10670 10724 0
-224 -10670 10671 0
-10671 10725 0
-225 -10671 10672 0
-10672 10726 0
-226 -10672 10673 0
-10673 10727 0
-227 -10673 10674 0
-10674 10728 0
-228 -10674 10675 0
-10675 10729 0
-229 -10675 10676 0
-10676 10730 0
-230 -10676 10677 0
-10677 10731 0
-231 -10677 10678 0
-10678 10732 0
-232 -10678 10679 0
-10679 10733 0
-233 -10679 10680 0
-10680 10734 0
-234 -10680 10681 0
-10681 10735 0
-235 -10681 10682 0
-10682 10736 0
-236 -10682 10683 0
-10683 10737 0
-237 -10683 10684 0
-10684 10738 0
-238 -10684 10685 0
-10685 10739 0
-239 -10685 10686 0
-10686 10740 0
-240 -10686 10687 0
-10687 10741 0
-241 -10687 10688 0
-10688 10742 0
-242 -10688 10689 0
-10689 10743 0
-243 -10689 10690 0
-10690 10744 0
-244 -10690 10691 0
-10691 10745 0
-245 -10691 0
-192 10692 0
-10692 10746 0
-193 -10692 10693 0
-10693 10747 0
-194 -10693 10694 0
-10694 10748 0
-195 -10694 10695 0
-10695 10749 0
-196 -10695 10696 0
-10696 10750 0
-197 -10696 10697 0
-10697 10751 0
-198 -10697 10698 0
-10698 10752 0
-199 -10698 10699 0
-10699 10753 0
-200 -10699 10700 0
-10700 10754 0
-201 -10700 10701 0
-10701 10755 0
-202 -10701 10702 0
-10702 10756 0
-203 -10702 10703 0
-10703 10757 0
-204 -10703 10704 0
-10704 10758 0
-205 -10704 10705 0
-10705 10759 0
-206 -10705 10706 0
-10706 10760 0
-207 -10706 10707 0
-10707 10761 0
-208 -10707 10708 0
-10708 10762 0
-209 -10708 10709 0
-10709 10763 0
-210 -10709 10710 0
-10710 10764 0
-211 -10710 10711 0
-10711 10765 0
-212 -10711 10712 0
-10712 10766 0
-213 -10712 10713 0
-10713 10767 0
-214 -10713 10714 0
-10714 10768 0
-215 -10714 10715 0
-10715 10769 0
-216 -10715 10716 0
-10716 10770 0
-217 -10716 10717 0
-10717 10771 0
-218 -10717 10718 0
-10718 10772 0
-219 -10718 10719 0
-10719 10773 0
-220 -10719 10720 0
-10720 10774 0
-221 -10720 10721 0
-10721 10775 0
-222 -10721 10722 0
-10722 10776 0
-223 -10722 10723 0
-10723 10777 0
-224 -10723 10724 0
-10724 10778 0
-225 -10724 10725 0
-10725 10779 0
-226 -10725 10726 0
-10726 10780 0
-227 -10726 10727 0
-10727 10781 0
-228 -10727 10728 0
-10728 10782 0
-229 -10728 10729 0
-10729 10783 0
-230 -10729 10730 0
-10730 10784 0
-231 -10730 10731 0
-10731 10785 0
-232 -10731 10732 0
-10732 10786 0
-233 -10732 10733 0
-10733 10787 0
-234 -10733 10734 0
-10734 10788 0
-235 -10734 10735 0
-10735 10789 0
-236 -10735 10736 0
-10736 10790 0
-237 -10736 10737 0
-10737 10791 0
-238 -10737 10738 0
-10738 10792 0
-239 -10738 10739 0
-10739 10793 0
-240 -10739 10740 0
-10740 10794 0
-241 -10740 10741 0
-10741 10795 0
-242 -10741 10742 0
-10742 10796 0
-243 -10742 10743 0
-10743 10797 0
-244 -10743 10744 0
-10744 10798 0
-245 -10744 10745 0
-10745 10799 0
-246 -10745 0
-193 10746 0
-10746 10800 0
-194 -10746 10747 0
-10747 10801 0
-195 -10747 10748 0
-10748 10802 0
-196 -10748 10749 0
-10749 10803 0
-197 -10749 10750 0
-10750 10804 0
-198 -10750 10751 0
-10751 10805 0
-199 -10751 10752 0
-10752 10806 0
-200 -10752 10753 0
-10753 10807 0
-201 -10753 10754 0
-10754 10808 0
-202 -10754 10755 0
-10755 10809 0
-203 -10755 10756 0
-10756 10810 0
-204 -10756 10757 0
-10757 10811 0
-205 -10757 10758 0
-10758 10812 0
-206 -10758 10759 0
-10759 10813 0
-207 -10759 10760 0
-10760 10814 0
-208 -10760 10761 0
-10761 10815 0
-209 -10761 10762 0
-10762 10816 0
-210 -10762 10763 0
-10763 10817 0
-211 -10763 10764 0
-10764 10818 0
-212 -10764 10765 0
-10765 10819 0
-213 -10765 10766 0
-10766 10820 0
-214 -10766 10767 0
-10767 10821 0
-215 -10767 10768 0
-10768 10822 0
-216 -10768 10769 0
-10769 10823 0
-217 -10769 10770 0
-10770 10824 0
-218 -10770 10771 0
-10771 10825 0
-219 -10771 10772 0
-10772 10826 0
-220 -10772 10773 0
-10773 10827 0
-221 -10773 10774 0
-10774 10828 0
-222 -10774 10775 0
-10775 10829 0
-223 -10775 10776 0
-10776 10830 0
-224 -10776 10777 0
-10777 10831 0
-225 -10777 10778 0
-10778 10832 0
-226 -10778 10779 0
-10779 10833 0
-227 -10779 10780 0
-10780 10834 0
-228 -10780 10781 0
-10781 10835 0
-229 -10781 10782 0
-10782 10836 0
-230 -10782 10783 0
-10783 10837 0
-231 -10783 10784 0
-10784 10838 0
-232 -10784 10785 0
-10785 10839 0
-233 -10785 10786 0
-10786 10840 0
-234 -10786 10787 0
-10787 10841 0
-235 -10787 10788 0
-10788 10842 0
-236 -10788 10789 0
-10789 10843 0
-237 -10789 10790 0
-10790 10844 0
-238 -10790 10791 0
-10791 10845 0
-239 -10791 10792 0
-10792 10846 0
-240 -10792 10793 0
-10793 10847 0
-241 -10793 10794 0
-10794 10848 0
-242 -10794 10795 0
-10795 10849 0
-243 -10795 10796 0
-10796 10850 0
-244 -10796 10797 0
-10797 10851 0
-245 -10797 10798 0
-10798 10852 0
-246 -10798 10799 0
-10799 10853 0
-247 -10799 0
-194 10800 0
-10800 10854 0
-195 -10800 10801 0
-10801 10855 0
-196 -10801 10802 0
-10802 10856 0
-197 -10802 10803 0
-10803 10857 0
-198 -10803 10804 0
-10804 10858 0
-199 -10804 10805 0
-10805 10859 0
-200 -10805 10806 0
-10806 10860 0
-201 -10806 10807 0
-10807 10861 0
-202 -10807 10808 0
-10808 10862 0
-203 -10808 10809 0
-10809 10863 0
-204 -10809 10810 0
-10810 10864 0
-205 -10810 10811 0
-10811 10865 0
-206 -10811 10812 0
-10812 10866 0
-207 -10812 10813 0
-10813 10867 0
-208 -10813 10814 0
-10814 10868 0
-209 -10814 10815 0
-10815 10869 0
-210 -10815 10816 0
-10816 10870 0
-211 -10816 10817 0
-10817 10871 0
-212 -10817 10818 0
-10818 10872 0
-213 -10818 10819 0
-10819 10873 0
-214 -10819 10820 0
-10820 10874 0
-215 -10820 10821 0
-10821 10875 0
-216 -10821 10822 0
-10822 10876 0
-217 -10822 10823 0
-10823 10877 0
-218 -10823 10824 0
-10824 10878 0
-219 -10824 10825 0
-10825 10879 0
-220 -10825 10826 0
-10826 10880 0
-221 -10826 10827 0
-10827 10881 0
-222 -10827 10828 0
-10828 10882 0
-223 -10828 10829 0
-10829 10883 0
-224 -10829 10830 0
-10830 10884 0
-225 -10830 10831 0
-10831 10885 0
-226 -10831 10832 0
-10832 10886 0
-227 -10832 10833 0
-10833 10887 0
-228 -10833 10834 0
-10834 10888 0
-229 -10834 10835 0
-10835 10889 0
-230 -10835 10836 0
-10836 10890 0
-231 -10836 10837 0
-10837 10891 0
-232 -10837 10838 0
-10838 10892 0
-233 -10838 10839 0
-10839 10893 0
-234 -10839 10840 0
-10840 10894 0
-235 -10840 10841 0
-10841 10895 0
-236 -10841 10842 0
-10842 10896 0
-237 -10842 10843 0
-10843 10897 0
-238 -10843 10844 0
-10844 10898 0
-239 -10844 10845 0
-10845 10899 0
-240 -10845 10846 0
-10846 10900 0
-241 -10846 10847 0
-10847 10901 0
-242 -10847 10848 0
-10848 10902 0
-243 -10848 10849 0
-10849 10903 0
-244 -10849 10850 0
-10850 10904 0
-245 -10850 10851 0
-10851 10905 0
-246 -10851 10852 0
-10852 10906 0
-247 -10852 10853 0
-10853 10907 0
-248 -10853 0
-195 10854 0
-10854 10908 0
-196 -10854 10855 0
-10855 10909 0
-197 -10855 10856 0
-10856 10910 0
-198 -10856 10857 0
-10857 10911 0
-199 -10857 10858 0
-10858 10912 0
-200 -10858 10859 0
-10859 10913 0
-201 -10859 10860 0
-10860 10914 0
-202 -10860 10861 0
-10861 10915 0
-203 -10861 10862 0
-10862 10916 0
-204 -10862 10863 0
-10863 10917 0
-205 -10863 10864 0
-10864 10918 0
-206 -10864 10865 0
-10865 10919 0
-207 -10865 10866 0
-10866 10920 0
-208 -10866 10867 0
-10867 10921 0
-209 -10867 10868 0
-10868 10922 0
-210 -10868 10869 0
-10869 10923 0
-211 -10869 10870 0
-10870 10924 0
-212 -10870 10871 0
-10871 10925 0
-213 -10871 10872 0
-10872 10926 0
-214 -10872 10873 0
-10873 10927 0
-215 -10873 10874 0
-10874 10928 0
-216 -10874 10875 0
-10875 10929 0
-217 -10875 10876 0
-10876 10930 0
-218 -10876 10877 0
-10877 10931 0
-219 -10877 10878 0
-10878 10932 0
-220 -10878 10879 0
-10879 10933 0
-221 -10879 10880 0
-10880 10934 0
-222 -10880 10881 0
-10881 10935 0
-223 -10881 10882 0
-10882 10936 0
-224 -10882 10883 0
-10883 10937 0
-225 -10883 10884 0
-10884 10938 0
-226 -10884 10885 0
-10885 10939 0
-227 -10885 10886 0
-10886 10940 0
-228 -10886 10887 0
-10887 10941 0
-229 -10887 10888 0
-10888 10942 0
-230 -10888 10889 0
-10889 10943 0
-231 -10889 10890 0
-10890 10944 0
-232 -10890 10891 0
-10891 10945 0
-233 -10891 10892 0
-10892 10946 0
-234 -10892 10893 0
-10893 10947 0
-235 -10893 10894 0
-10894 10948 0
-236 -10894 10895 0
-10895 10949 0
-237 -10895 10896 0
-10896 10950 0
-238 -10896 10897 0
-10897 10951 0
-239 -10897 10898 0
-10898 10952 0
-240 -10898 10899 0
-10899 10953 0
-241 -10899 10900 0
-10900 10954 0
-242 -10900 10901 0
-10901 10955 0
-243 -10901 10902 0
-10902 10956 0
-244 -10902 10903 0
-10903 10957 0
-245 -10903 10904 0
-10904 10958 0
-246 -10904 10905 0
-10905 10959 0
-247 -10905 10906 0
-10906 10960 0
-248 -10906 10907 0
-10907 10961 0
-249 -10907 0
-196 10908 0
-10908 10962 0
-197 -10908 10909 0
-10909 10963 0
-198 -10909 10910 0
-10910 10964 0
-199 -10910 10911 0
-10911 10965 0
-200 -10911 10912 0
-10912 10966 0
-201 -10912 10913 0
-10913 10967 0
-202 -10913 10914 0
-10914 10968 0
-203 -10914 10915 0
-10915 10969 0
-204 -10915 10916 0
-10916 10970 0
-205 -10916 10917 0
-10917 10971 0
-206 -10917 10918 0
-10918 10972 0
-207 -10918 10919 0
-10919 10973 0
-208 -10919 10920 0
-10920 10974 0
-209 -10920 10921 0
-10921 10975 0
-210 -10921 10922 0
-10922 10976 0
-211 -10922 10923 0
-10923 10977 0
-212 -10923 10924 0
-10924 10978 0
-213 -10924 10925 0
-10925 10979 0
-214 -10925 10926 0
-10926 10980 0
-215 -10926 10927 0
-10927 10981 0
-216 -10927 10928 0
-10928 10982 0
-217 -10928 10929 0
-10929 10983 0
-218 -10929 10930 0
-10930 10984 0
-219 -10930 10931 0
-10931 10985 0
-220 -10931 10932 0
-10932 10986 0
-221 -10932 10933 0
-10933 10987 0
-222 -10933 10934 0
-10934 10988 0
-223 -10934 10935 0
-10935 10989 0
-224 -10935 10936 0
-10936 10990 0
-225 -10936 10937 0
-10937 10991 0
-226 -10937 10938 0
-10938 10992 0
-227 -10938 10939 0
-10939 10993 0
-228 -10939 10940 0
-10940 10994 0
-229 -10940 10941 0
-10941 10995 0
-230 -10941 10942 0
-10942 10996 0
-231 -10942 10943 0
-10943 10997 0
-232 -10943 10944 0
-10944 10998 0
-233 -10944 10945 0
-10945 10999 0
-234 -10945 10946 0
-10946 11000 0
-235 -10946 10947 0
-10947 11001 0
-236 -10947 10948 0
-10948 11002 0
-237 -10948 10949 0
-10949 11003 0
-238 -10949 10950 0
-10950 11004 0
-239 -10950 10951 0
-10951 11005 0
-240 -10951 10952 0
-10952 11006 0
-241 -10952 10953 0
-10953 11007 0
-242 -10953 10954 0
-10954 11008 0
-243 -10954 10955 0
-10955 11009 0
-244 -10955 10956 0
-10956 11010 0
-245 -10956 10957 0
-10957 11011 0
-246 -10957 10958 0
-10958 11012 0
-247 -10958 10959 0
-10959 11013 0
-248 -10959 10960 0
-10960 11014 0
-249 -10960 10961 0
-10961 11015 0
-250 -10961 0
-197 10962 0
-10962 11016 0
-198 -10962 10963 0
-10963 11017 0
-199 -10963 10964 0
-10964 11018 0
-200 -10964 10965 0
-10965 11019 0
-201 -10965 10966 0
-10966 11020 0
-202 -10966 10967 0
-10967 11021 0
-203 -10967 10968 0
-10968 11022 0
-204 -10968 10969 0
-10969 11023 0
-205 -10969 10970 0
-10970 11024 0
-206 -10970 10971 0
-10971 11025 0
-207 -10971 10972 0
-10972 11026 0
-208 -10972 10973 0
-10973 11027 0
-209 -10973 10974 0
-10974 11028 0
-210 -10974 10975 0
-10975 11029 0
-211 -10975 10976 0
-10976 11030 0
-212 -10976 10977 0
-10977 11031 0
-213 -10977 10978 0
-10978 11032 0
-214 -10978 10979 0
-10979 11033 0
-215 -10979 10980 0
-10980 11034 0
-216 -10980 10981 0
-10981 11035 0
-217 -10981 10982 0
-10982 11036 0
-218 -10982 10983 0
-10983 11037 0
-219 -10983 10984 0
-10984 11038 0
-220 -10984 10985 0
-10985 11039 0
-221 -10985 10986 0
-10986 11040 0
-222 -10986 10987 0
-10987 11041 0
-223 -10987 10988 0
-10988 11042 0
-224 -10988 10989 0
-10989 11043 0
-225 -10989 10990 0
-10990 11044 0
-226 -10990 10991 0
-10991 11045 0
-227 -10991 10992 0
-10992 11046 0
-228 -10992 10993 0
-10993 11047 0
-229 -10993 10994 0
-10994 11048 0
-230 -10994 10995 0
-10995 11049 0
-231 -10995 10996 0
-10996 11050 0
-232 -10996 10997 0
-10997 11051 0
-233 -10997 10998 0
-10998 11052 0
-234 -10998 10999 0
-10999 11053 0
-235 -10999 11000 0
-11000 11054 0
-236 -11000 11001 0
-11001 11055 0
-237 -11001 11002 0
-11002 11056 0
-238 -11002 11003 0
-11003 11057 0
-239 -11003 11004 0
-11004 11058 0
-240 -11004 11005 0
-11005 11059 0
-241 -11005 11006 0
-11006 11060 0
-242 -11006 11007 0
-11007 11061 0
-243 -11007 11008 0
-11008 11062 0
-244 -11008 11009 0
-11009 11063 0
-245 -11009 11010 0
-11010 11064 0
-246 -11010 11011 0
-11011 11065 0
-247 -11011 11012 0
-11012 11066 0
-248 -11012 11013 0
-11013 11067 0
-249 -11013 11014 0
-11014 11068 0
-250 -11014 11015 0
-11015 11069 0
-251 -11015 0
-198 11016 0
-11016 11070 0
-199 -11016 11017 0
-11017 11071 0
-200 -11017 11018 0
-11018 11072 0
-201 -11018 11019 0
-11019 11073 0
-202 -11019 11020 0
-11020 11074 0
-203 -11020 11021 0
-11021 11075 0
-204 -11021 11022 0
-11022 11076 0
-205 -11022 11023 0
-11023 11077 0
-206 -11023 11024 0
-11024 11078 0
-207 -11024 11025 0
-11025 11079 0
-208 -11025 11026 0
-11026 11080 0
-209 -11026 11027 0
-11027 11081 0
-210 -11027 11028 0
-11028 11082 0
-211 -11028 11029 0
-11029 11083 0
-212 -11029 11030 0
-11030 11084 0
-213 -11030 11031 0
-11031 11085 0
-214 -11031 11032 0
-11032 11086 0
-215 -11032 11033 0
-11033 11087 0
-216 -11033 11034 0
-11034 11088 0
-217 -11034 11035 0
-11035 11089 0
-218 -11035 11036 0
-11036 11090 0
-219 -11036 11037 0
-11037 11091 0
-220 -11037 11038 0
-11038 11092 0
-221 -11038 11039 0
-11039 11093 0
-222 -11039 11040 0
-11040 11094 0
-223 -11040 11041 0
-11041 11095 0
-224 -11041 11042 0
-11042 11096 0
-225 -11042 11043 0
-11043 11097 0
-226 -11043 11044 0
-11044 11098 0
-227 -11044 11045 0
-11045 11099 0
-228 -11045 11046 0
-11046 11100 0
-229 -11046 11047 0
-11047 11101 0
-230 -11047 11048 0
-11048 11102 0
-231 -11048 11049 0
-11049 11103 0
-232 -11049 11050 0
-11050 11104 0
-233 -11050 11051 0
-11051 11105 0
-234 -11051 11052 0
-11052 11106 0
-235 -11052 11053 0
-11053 11107 0
-236 -11053 11054 0
-11054 11108 0
-237 -11054 11055 0
-11055 11109 0
-238 -11055 11056 0
-11056 11110 0
-239 -11056 11057 0
-11057 11111 0
-240 -11057 11058 0
-11058 11112 0
-241 -11058 11059 0
-11059 11113 0
-242 -11059 11060 0
-11060 11114 0
-243 -11060 11061 0
-11061 11115 0
-244 -11061 11062 0
-11062 11116 0
-245 -11062 11063 0
-11063 11117 0
-246 -11063 11064 0
-11064 11118 0
-247 -11064 11065 0
-11065 11119 0
-248 -11065 11066 0
-11066 11120 0
-249 -11066 11067 0
-11067 11121 0
-250 -11067 11068 0
-11068 11122 0
-251 -11068 11069 0
-11069 11123 0
-252 -11069 0
-199 11070 0
-11070 11124 0
-200 -11070 11071 0
-11071 11125 0
-201 -11071 11072 0
-11072 11126 0
-202 -11072 11073 0
-11073 11127 0
-203 -11073 11074 0
-11074 11128 0
-204 -11074 11075 0
-11075 11129 0
-205 -11075 11076 0
-11076 11130 0
-206 -11076 11077 0
-11077 11131 0
-207 -11077 11078 0
-11078 11132 0
-208 -11078 11079 0
-11079 11133 0
-209 -11079 11080 0
-11080 11134 0
-210 -11080 11081 0
-11081 11135 0
-211 -11081 11082 0
-11082 11136 0
-212 -11082 11083 0
-11083 11137 0
-213 -11083 11084 0
-11084 11138 0
-214 -11084 11085 0
-11085 11139 0
-215 -11085 11086 0
-11086 11140 0
-216 -11086 11087 0
-11087 11141 0
-217 -11087 11088 0
-11088 11142 0
-218 -11088 11089 0
-11089 11143 0
-219 -11089 11090 0
-11090 11144 0
-220 -11090 11091 0
-11091 11145 0
-221 -11091 11092 0
-11092 11146 0
-222 -11092 11093 0
-11093 11147 0
-223 -11093 11094 0
-11094 11148 0
-224 -11094 11095 0
-11095 11149 0
-225 -11095 11096 0
-11096 11150 0
-226 -11096 11097 0
-11097 11151 0
-227 -11097 11098 0
-11098 11152 0
-228 -11098 11099 0
-11099 11153 0
-229 -11099 11100 0
-11100 11154 0
-230 -11100 11101 0
-11101 11155 0
-231 -11101 11102 0
-11102 11156 0
-232 -11102 11103 0
-11103 11157 0
-233 -11103 11104 0
-11104 11158 0
-234 -11104 11105 0
-11105 11159 0
-235 -11105 11106 0
-11106 11160 0
-236 -11106 11107 0
-11107 11161 0
-237 -11107 11108 0
-11108 11162 0
-238 -11108 11109 0
-11109 11163 0
-239 -11109 11110 0
-11110 11164 0
-240 -11110 11111 0
-11111 11165 0
-241 -11111 11112 0
-11112 11166 0
-242 -11112 11113 0
-11113 11167 0
-243 -11113 11114 0
-11114 11168 0
-244 -11114 11115 0
-11115 11169 0
-245 -11115 11116 0
-11116 11170 0
-246 -11116 11117 0
-11117 11171 0
-247 -11117 11118 0
-11118 11172 0
-248 -11118 11119 0
-11119 11173 0
-249 -11119 11120 0
-11120 11174 0
-250 -11120 11121 0
-11121 11175 0
-251 -11121 11122 0
-11122 11176 0
-252 -11122 11123 0
-11123 11177 0
-253 -11123 0
-200 11124 0
-11124 11178 0
-201 -11124 11125 0
-11125 11179 0
-202 -11125 11126 0
-11126 11180 0
-203 -11126 11127 0
-11127 11181 0
-204 -11127 11128 0
-11128 11182 0
-205 -11128 11129 0
-11129 11183 0
-206 -11129 11130 0
-11130 11184 0
-207 -11130 11131 0
-11131 11185 0
-208 -11131 11132 0
-11132 11186 0
-209 -11132 11133 0
-11133 11187 0
-210 -11133 11134 0
-11134 11188 0
-211 -11134 11135 0
-11135 11189 0
-212 -11135 11136 0
-11136 11190 0
-213 -11136 11137 0
-11137 11191 0
-214 -11137 11138 0
-11138 11192 0
-215 -11138 11139 0
-11139 11193 0
-216 -11139 11140 0
-11140 11194 0
-217 -11140 11141 0
-11141 11195 0
-218 -11141 11142 0
-11142 11196 0
-219 -11142 11143 0
-11143 11197 0
-220 -11143 11144 0
-11144 11198 0
-221 -11144 11145 0
-11145 11199 0
-222 -11145 11146 0
-11146 11200 0
-223 -11146 11147 0
-11147 11201 0
-224 -11147 11148 0
-11148 11202 0
-225 -11148 11149 0
-11149 11203 0
-226 -11149 11150 0
-11150 11204 0
-227 -11150 11151 0
-11151 11205 0
-228 -11151 11152 0
-11152 11206 0
-229 -11152 11153 0
-11153 11207 0
-230 -11153 11154 0
-11154 11208 0
-231 -11154 11155 0
-11155 11209 0
-232 -11155 11156 0
-11156 11210 0
-233 -11156 11157 0
-11157 11211 0
-234 -11157 11158 0
-11158 11212 0
-235 -11158 11159 0
-11159 11213 0
-236 -11159 11160 0
-11160 11214 0
-237 -11160 11161 0
-11161 11215 0
-238 -11161 11162 0
-11162 11216 0
-239 -11162 11163 0
-11163 11217 0
-240 -11163 11164 0
-11164 11218 0
-241 -11164 11165 0
-11165 11219 0
-242 -11165 11166 0
-11166 11220 0
-243 -11166 11167 0
-11167 11221 0
-244 -11167 11168 0
-11168 11222 0
-245 -11168 11169 0
-11169 11223 0
-246 -11169 11170 0
-11170 11224 0
-247 -11170 11171 0
-11171 11225 0
-248 -11171 11172 0
-11172 11226 0
-249 -11172 11173 0
-11173 11227 0
-250 -11173 11174 0
-11174 11228 0
-251 -11174 11175 0
-11175 11229 0
-252 -11175 11176 0
-11176 11230 0
-253 -11176 11177 0
-11177 11231 0
-254 -11177 0
-201 11178 0
-11178 11232 0
-202 -11178 11179 0
-11179 11233 0
-203 -11179 11180 0
-11180 11234 0
-204 -11180 11181 0
-11181 11235 0
-205 -11181 11182 0
-11182 11236 0
-206 -11182 11183 0
-11183 11237 0
-207 -11183 11184 0
-11184 11238 0
-208 -11184 11185 0
-11185 11239 0
-209 -11185 11186 0
-11186 11240 0
-210 -11186 11187 0
-11187 11241 0
-211 -11187 11188 0
-11188 11242 0
-212 -11188 11189 0
-11189 11243 0
-213 -11189 11190 0
-11190 11244 0
-214 -11190 11191 0
-11191 11245 0
-215 -11191 11192 0
-11192 11246 0
-216 -11192 11193 0
-11193 11247 0
-217 -11193 11194 0
-11194 11248 0
-218 -11194 11195 0
-11195 11249 0
-219 -11195 11196 0
-11196 11250 0
-220 -11196 11197 0
-11197 11251 0
-221 -11197 11198 0
-11198 11252 0
-222 -11198 11199 0
-11199 11253 0
-223 -11199 11200 0
-11200 11254 0
-224 -11200 11201 0
-11201 11255 0
-225 -11201 11202 0
-11202 11256 0
-226 -11202 11203 0
-11203 11257 0
-227 -11203 11204 0
-11204 11258 0
-228 -11204 11205 0
-11205 11259 0
-229 -11205 11206 0
-11206 11260 0
-230 -11206 11207 0
-11207 11261 0
-231 -11207 11208 0
-11208 11262 0
-232 -11208 11209 0
-11209 11263 0
-233 -11209 11210 0
-11210 11264 0
-234 -11210 11211 0
-11211 11265 0
-235 -11211 11212 0
-11212 11266 0
-236 -11212 11213 0
-11213 11267 0
-237 -11213 11214 0
-11214 11268 0
-238 -11214 11215 0
-11215 11269 0
-239 -11215 11216 0
-11216 11270 0
-240 -11216 11217 0
-11217 11271 0
-241 -11217 11218 0
-11218 11272 0
-242 -11218 11219 0
-11219 11273 0
-243 -11219 11220 0
-11220 11274 0
-244 -11220 11221 0
-11221 11275 0
-245 -11221 11222 0
-11222 11276 0
-246 -11222 11223 0
-11223 11277 0
-247 -11223 11224 0
-11224 11278 0
-248 -11224 11225 0
-11225 11279 0
-249 -11225 11226 0
-11226 11280 0
-250 -11226 11227 0
-11227 11281 0
-251 -11227 11228 0
-11228 11282 0
-252 -11228 11229 0
-11229 11283 0
-253 -11229 11230 0
-11230 11284 0
-254 -11230 11231 0
-11231 11285 0
-255 -11231 0
-202 11232 0
-11232 11286 0
-203 -11232 11233 0
-11233 11287 0
-204 -11233 11234 0
-11234 11288 0
-205 -11234 11235 0
-11235 11289 0
-206 -11235 11236 0
-11236 11290 0
-207 -11236 11237 0
-11237 11291 0
-208 -11237 11238 0
-11238 11292 0
-209 -11238 11239 0
-11239 11293 0
-210 -11239 11240 0
-11240 11294 0
-211 -11240 11241 0
-11241 11295 0
-212 -11241 11242 0
-11242 11296 0
-213 -11242 11243 0
-11243 11297 0
-214 -11243 11244 0
-11244 11298 0
-215 -11244 11245 0
-11245 11299 0
-216 -11245 11246 0
-11246 11300 0
-217 -11246 11247 0
-11247 11301 0
-218 -11247 11248 0
-11248 11302 0
-219 -11248 11249 0
-11249 11303 0
-220 -11249 11250 0
-11250 11304 0
-221 -11250 11251 0
-11251 11305 0
-222 -11251 11252 0
-11252 11306 0
-223 -11252 11253 0
-11253 11307 0
-224 -11253 11254 0
-11254 11308 0
-225 -11254 11255 0
-11255 11309 0
-226 -11255 11256 0
-11256 11310 0
-227 -11256 11257 0
-11257 11311 0
-228 -11257 11258 0
-11258 11312 0
-229 -11258 11259 0
-11259 11313 0
-230 -11259 11260 0
-11260 11314 0
-231 -11260 11261 0
-11261 11315 0
-232 -11261 11262 0
-11262 11316 0
-233 -11262 11263 0
-11263 11317 0
-234 -11263 11264 0
-11264 11318 0
-235 -11264 11265 0
-11265 11319 0
-236 -11265 11266 0
-11266 11320 0
-237 -11266 11267 0
-11267 11321 0
-238 -11267 11268 0
-11268 11322 0
-239 -11268 11269 0
-11269 11323 0
-240 -11269 11270 0
-11270 11324 0
-241 -11270 11271 0
-11271 11325 0
-242 -11271 11272 0
-11272 11326 0
-243 -11272 11273 0
-11273 11327 0
-244 -11273 11274 0
-11274 11328 0
-245 -11274 11275 0
-11275 11329 0
-246 -11275 11276 0
-11276 11330 0
-247 -11276 11277 0
-11277 11331 0
-248 -11277 11278 0
-11278 11332 0
-249 -11278 11279 0
-11279 11333 0
-250 -11279 11280 0
-11280 11334 0
-251 -11280 11281 0
-11281 11335 0
-252 -11281 11282 0
-11282 11336 0
-253 -11282 11283 0
-11283 11337 0
-254 -11283 11284 0
-11284 11338 0
-255 -11284 11285 0
-11285 11339 0
-256 -11285 0
-203 11286 0
-11286 11340 0
-204 -11286 11287 0
-11287 11341 0
-205 -11287 11288 0
-11288 11342 0
-206 -11288 11289 0
-11289 11343 0
-207 -11289 11290 0
-11290 11344 0
-208 -11290 11291 0
-11291 11345 0
-209 -11291 11292 0
-11292 11346 0
-210 -11292 11293 0
-11293 11347 0
-211 -11293 11294 0
-11294 11348 0
-212 -11294 11295 0
-11295 11349 0
-213 -11295 11296 0
-11296 11350 0
-214 -11296 11297 0
-11297 11351 0
-215 -11297 11298 0
-11298 11352 0
-216 -11298 11299 0
-11299 11353 0
-217 -11299 11300 0
-11300 11354 0
-218 -11300 11301 0
-11301 11355 0
-219 -11301 11302 0
-11302 11356 0
-220 -11302 11303 0
-11303 11357 0
-221 -11303 11304 0
-11304 11358 0
-222 -11304 11305 0
-11305 11359 0
-223 -11305 11306 0
-11306 11360 0
-224 -11306 11307 0
-11307 11361 0
-225 -11307 11308 0
-11308 11362 0
-226 -11308 11309 0
-11309 11363 0
-227 -11309 11310 0
-11310 11364 0
-228 -11310 11311 0
-11311 11365 0
-229 -11311 11312 0
-11312 11366 0
-230 -11312 11313 0
-11313 11367 0
-231 -11313 11314 0
-11314 11368 0
-232 -11314 11315 0
-11315 11369 0
-233 -11315 11316 0
-11316 11370 0
-234 -11316 11317 0
-11317 11371 0
-235 -11317 11318 0
-11318 11372 0
-236 -11318 11319 0
-11319 11373 0
-237 -11319 11320 0
-11320 11374 0
-238 -11320 11321 0
-11321 11375 0
-239 -11321 11322 0
-11322 11376 0
-240 -11322 11323 0
-11323 11377 0
-241 -11323 11324 0
-11324 11378 0
-242 -11324 11325 0
-11325 11379 0
-243 -11325 11326 0
-11326 11380 0
-244 -11326 11327 0
-11327 11381 0
-245 -11327 11328 0
-11328 11382 0
-246 -11328 11329 0
-11329 11383 0
-247 -11329 11330 0
-11330 11384 0
-248 -11330 11331 0
-11331 11385 0
-249 -11331 11332 0
-11332 11386 0
-250 -11332 11333 0
-11333 11387 0
-251 -11333 11334 0
-11334 11388 0
-252 -11334 11335 0
-11335 11389 0
-253 -11335 11336 0
-11336 11390 0
-254 -11336 11337 0
-11337 11391 0
-255 -11337 11338 0
-11338 11392 0
-256 -11338 11339 0
-11339 11393 0
-257 -11339 0
-204 11340 0
-11340 11394 0
-205 -11340 11341 0
-11341 11395 0
-206 -11341 11342 0
-11342 11396 0
-207 -11342 11343 0
-11343 11397 0
-208 -11343 11344 0
-11344 11398 0
-209 -11344 11345 0
-11345 11399 0
-210 -11345 11346 0
-11346 11400 0
-211 -11346 11347 0
-11347 11401 0
-212 -11347 11348 0
-11348 11402 0
-213 -11348 11349 0
-11349 11403 0
-214 -11349 11350 0
-11350 11404 0
-215 -11350 11351 0
-11351 11405 0
-216 -11351 11352 0
-11352 11406 0
-217 -11352 11353 0
-11353 11407 0
-218 -11353 11354 0
-11354 11408 0
-219 -11354 11355 0
-11355 11409 0
-220 -11355 11356 0
-11356 11410 0
-221 -11356 11357 0
-11357 11411 0
-222 -11357 11358 0
-11358 11412 0
-223 -11358 11359 0
-11359 11413 0
-224 -11359 11360 0
-11360 11414 0
-225 -11360 11361 0
-11361 11415 0
-226 -11361 11362 0
-11362 11416 0
-227 -11362 11363 0
-11363 11417 0
-228 -11363 11364 0
-11364 11418 0
-229 -11364 11365 0
-11365 11419 0
-230 -11365 11366 0
-11366 11420 0
-231 -11366 11367 0
-11367 11421 0
-232 -11367 11368 0
-11368 11422 0
-233 -11368 11369 0
-11369 11423 0
-234 -11369 11370 0
-11370 11424 0
-235 -11370 11371 0
-11371 11425 0
-236 -11371 11372 0
-11372 11426 0
-237 -11372 11373 0
-11373 11427 0
-238 -11373 11374 0
-11374 11428 0
-239 -11374 11375 0
-11375 11429 0
-240 -11375 11376 0
-11376 11430 0
-241 -11376 11377 0
-11377 11431 0
-242 -11377 11378 0
-11378 11432 0
-243 -11378 11379 0
-11379 11433 0
-244 -11379 11380 0
-11380 11434 0
-245 -11380 11381 0
-11381 11435 0
-246 -11381 11382 0
-11382 11436 0
-247 -11382 11383 0
-11383 11437 0
-248 -11383 11384 0
-11384 11438 0
-249 -11384 11385 0
-11385 11439 0
-250 -11385 11386 0
-11386 11440 0
-251 -11386 11387 0
-11387 11441 0
-252 -11387 11388 0
-11388 11442 0
-253 -11388 11389 0
-11389 11443 0
-254 -11389 11390 0
-11390 11444 0
-255 -11390 11391 0
-11391 11445 0
-256 -11391 11392 0
-11392 11446 0
-257 -11392 11393 0
-11393 11447 0
-258 -11393 0
-205 11394 0
-11394 11448 0
-206 -11394 11395 0
-11395 11449 0
-207 -11395 11396 0
-11396 11450 0
-208 -11396 11397 0
-11397 11451 0
-209 -11397 11398 0
-11398 11452 0
-210 -11398 11399 0
-11399 11453 0
-211 -11399 11400 0
-11400 11454 0
-212 -11400 11401 0
-11401 11455 0
-213 -11401 11402 0
-11402 11456 0
-214 -11402 11403 0
-11403 11457 0
-215 -11403 11404 0
-11404 11458 0
-216 -11404 11405 0
-11405 11459 0
-217 -11405 11406 0
-11406 11460 0
-218 -11406 11407 0
-11407 11461 0
-219 -11407 11408 0
-11408 11462 0
-220 -11408 11409 0
-11409 11463 0
-221 -11409 11410 0
-11410 11464 0
-222 -11410 11411 0
-11411 11465 0
-223 -11411 11412 0
-11412 11466 0
-224 -11412 11413 0
-11413 11467 0
-225 -11413 11414 0
-11414 11468 0
-226 -11414 11415 0
-11415 11469 0
-227 -11415 11416 0
-11416 11470 0
-228 -11416 11417 0
-11417 11471 0
-229 -11417 11418 0
-11418 11472 0
-230 -11418 11419 0
-11419 11473 0
-231 -11419 11420 0
-11420 11474 0
-232 -11420 11421 0
-11421 11475 0
-233 -11421 11422 0
-11422 11476 0
-234 -11422 11423 0
-11423 11477 0
-235 -11423 11424 0
-11424 11478 0
-236 -11424 11425 0
-11425 11479 0
-237 -11425 11426 0
-11426 11480 0
-238 -11426 11427 0
-11427 11481 0
-239 -11427 11428 0
-11428 11482 0
-240 -11428 11429 0
-11429 11483 0
-241 -11429 11430 0
-11430 11484 0
-242 -11430 11431 0
-11431 11485 0
-243 -11431 11432 0
-11432 11486 0
-244 -11432 11433 0
-11433 11487 0
-245 -11433 11434 0
-11434 11488 0
-246 -11434 11435 0
-11435 11489 0
-247 -11435 11436 0
-11436 11490 0
-248 -11436 11437 0
-11437 11491 0
-249 -11437 11438 0
-11438 11492 0
-250 -11438 11439 0
-11439 11493 0
-251 -11439 11440 0
-11440 11494 0
-252 -11440 11441 0
-11441 11495 0
-253 -11441 11442 0
-11442 11496 0
-254 -11442 11443 0
-11443 11497 0
-255 -11443 11444 0
-11444 11498 0
-256 -11444 11445 0
-11445 11499 0
-257 -11445 11446 0
-11446 11500 0
-258 -11446 11447 0
-11447 11501 0
-259 -11447 0
-206 11448 0
-11448 11502 0
-207 -11448 11449 0
-11449 11503 0
-208 -11449 11450 0
-11450 11504 0
-209 -11450 11451 0
-11451 11505 0
-210 -11451 11452 0
-11452 11506 0
-211 -11452 11453 0
-11453 11507 0
-212 -11453 11454 0
-11454 11508 0
-213 -11454 11455 0
-11455 11509 0
-214 -11455 11456 0
-11456 11510 0
-215 -11456 11457 0
-11457 11511 0
-216 -11457 11458 0
-11458 11512 0
-217 -11458 11459 0
-11459 11513 0
-218 -11459 11460 0
-11460 11514 0
-219 -11460 11461 0
-11461 11515 0
-220 -11461 11462 0
-11462 11516 0
-221 -11462 11463 0
-11463 11517 0
-222 -11463 11464 0
-11464 11518 0
-223 -11464 11465 0
-11465 11519 0
-224 -11465 11466 0
-11466 11520 0
-225 -11466 11467 0
-11467 11521 0
-226 -11467 11468 0
-11468 11522 0
-227 -11468 11469 0
-11469 11523 0
-228 -11469 11470 0
-11470 11524 0
-229 -11470 11471 0
-11471 11525 0
-230 -11471 11472 0
-11472 11526 0
-231 -11472 11473 0
-11473 11527 0
-232 -11473 11474 0
-11474 11528 0
-233 -11474 11475 0
-11475 11529 0
-234 -11475 11476 0
-11476 11530 0
-235 -11476 11477 0
-11477 11531 0
-236 -11477 11478 0
-11478 11532 0
-237 -11478 11479 0
-11479 11533 0
-238 -11479 11480 0
-11480 11534 0
-239 -11480 11481 0
-11481 11535 0
-240 -11481 11482 0
-11482 11536 0
-241 -11482 11483 0
-11483 11537 0
-242 -11483 11484 0
-11484 11538 0
-243 -11484 11485 0
-11485 11539 0
-244 -11485 11486 0
-11486 11540 0
-245 -11486 11487 0
-11487 11541 0
-246 -11487 11488 0
-11488 11542 0
-247 -11488 11489 0
-11489 11543 0
-248 -11489 11490 0
-11490 11544 0
-249 -11490 11491 0
-11491 11545 0
-250 -11491 11492 0
-11492 11546 0
-251 -11492 11493 0
-11493 11547 0
-252 -11493 11494 0
-11494 11548 0
-253 -11494 11495 0
-11495 11549 0
-254 -11495 11496 0
-11496 11550 0
-255 -11496 11497 0
-11497 11551 0
-256 -11497 11498 0
-11498 11552 0
-257 -11498 11499 0
-11499 11553 0
-258 -11499 11500 0
-11500 11554 0
-259 -11500 11501 0
-11501 11555 0
-260 -11501 0
-207 11502 0
-11502 11556 0
-208 -11502 11503 0
-11503 11557 0
-209 -11503 11504 0
-11504 11558 0
-210 -11504 11505 0
-11505 11559 0
-211 -11505 11506 0
-11506 11560 0
-212 -11506 11507 0
-11507 11561 0
-213 -11507 11508 0
-11508 11562 0
-214 -11508 11509 0
-11509 11563 0
-215 -11509 11510 0
-11510 11564 0
-216 -11510 11511 0
-11511 11565 0
-217 -11511 11512 0
-11512 11566 0
-218 -11512 11513 0
-11513 11567 0
-219 -11513 11514 0
-11514 11568 0
-220 -11514 11515 0
-11515 11569 0
-221 -11515 11516 0
-11516 11570 0
-222 -11516 11517 0
-11517 11571 0
-223 -11517 11518 0
-11518 11572 0
-224 -11518 11519 0
-11519 11573 0
-225 -11519 11520 0
-11520 11574 0
-226 -11520 11521 0
-11521 11575 0
-227 -11521 11522 0
-11522 11576 0
-228 -11522 11523 0
-11523 11577 0
-229 -11523 11524 0
-11524 11578 0
-230 -11524 11525 0
-11525 11579 0
-231 -11525 11526 0
-11526 11580 0
-232 -11526 11527 0
-11527 11581 0
-233 -11527 11528 0
-11528 11582 0
-234 -11528 11529 0
-11529 11583 0
-235 -11529 11530 0
-11530 11584 0
-236 -11530 11531 0
-11531 11585 0
-237 -11531 11532 0
-11532 11586 0
-238 -11532 11533 0
-11533 11587 0
-239 -11533 11534 0
-11534 11588 0
-240 -11534 11535 0
-11535 11589 0
-241 -11535 11536 0
-11536 11590 0
-242 -11536 11537 0
-11537 11591 0
-243 -11537 11538 0
-11538 11592 0
-244 -11538 11539 0
-11539 11593 0
-245 -11539 11540 0
-11540 11594 0
-246 -11540 11541 0
-11541 11595 0
-247 -11541 11542 0
-11542 11596 0
-248 -11542 11543 0
-11543 11597 0
-249 -11543 11544 0
-11544 11598 0
-250 -11544 11545 0
-11545 11599 0
-251 -11545 11546 0
-11546 11600 0
-252 -11546 11547 0
-11547 11601 0
-253 -11547 11548 0
-11548 11602 0
-254 -11548 11549 0
-11549 11603 0
-255 -11549 11550 0
-11550 11604 0
-256 -11550 11551 0
-11551 11605 0
-257 -11551 11552 0
-11552 11606 0
-258 -11552 11553 0
-11553 11607 0
-259 -11553 11554 0
-11554 11608 0
-260 -11554 11555 0
-11555 11609 0
-261 -11555 0
-208 11556 0
-11556 11610 0
-209 -11556 11557 0
-11557 11611 0
-210 -11557 11558 0
-11558 11612 0
-211 -11558 11559 0
-11559 11613 0
-212 -11559 11560 0
-11560 11614 0
-213 -11560 11561 0
-11561 11615 0
-214 -11561 11562 0
-11562 11616 0
-215 -11562 11563 0
-11563 11617 0
-216 -11563 11564 0
-11564 11618 0
-217 -11564 11565 0
-11565 11619 0
-218 -11565 11566 0
-11566 11620 0
-219 -11566 11567 0
-11567 11621 0
-220 -11567 11568 0
-11568 11622 0
-221 -11568 11569 0
-11569 11623 0
-222 -11569 11570 0
-11570 11624 0
-223 -11570 11571 0
-11571 11625 0
-224 -11571 11572 0
-11572 11626 0
-225 -11572 11573 0
-11573 11627 0
-226 -11573 11574 0
-11574 11628 0
-227 -11574 11575 0
-11575 11629 0
-228 -11575 11576 0
-11576 11630 0
-229 -11576 11577 0
-11577 11631 0
-230 -11577 11578 0
-11578 11632 0
-231 -11578 11579 0
-11579 11633 0
-232 -11579 11580 0
-11580 11634 0
-233 -11580 11581 0
-11581 11635 0
-234 -11581 11582 0
-11582 11636 0
-235 -11582 11583 0
-11583 11637 0
-236 -11583 11584 0
-11584 11638 0
-237 -11584 11585 0
-11585 11639 0
-238 -11585 11586 0
-11586 11640 0
-239 -11586 11587 0
-11587 11641 0
-240 -11587 11588 0
-11588 11642 0
-241 -11588 11589 0
-11589 11643 0
-242 -11589 11590 0
-11590 11644 0
-243 -11590 11591 0
-11591 11645 0
-244 -11591 11592 0
-11592 11646 0
-245 -11592 11593 0
-11593 11647 0
-246 -11593 11594 0
-11594 11648 0
-247 -11594 11595 0
-11595 11649 0
-248 -11595 11596 0
-11596 11650 0
-249 -11596 11597 0
-11597 11651 0
-250 -11597 11598 0
-11598 11652 0
-251 -11598 11599 0
-11599 11653 0
-252 -11599 11600 0
-11600 11654 0
-253 -11600 11601 0
-11601 11655 0
-254 -11601 11602 0
-11602 11656 0
-255 -11602 11603 0
-11603 11657 0
-256 -11603 11604 0
-11604 11658 0
-257 -11604 11605 0
-11605 11659 0
-258 -11605 11606 0
-11606 11660 0
-259 -11606 11607 0
-11607 11661 0
-260 -11607 11608 0
-11608 11662 0
-261 -11608 11609 0
-11609 11663 0
-262 -11609 0
-209 11610 0
-11610 11664 0
-210 -11610 11611 0
-11611 11665 0
-211 -11611 11612 0
-11612 11666 0
-212 -11612 11613 0
-11613 11667 0
-213 -11613 11614 0
-11614 11668 0
-214 -11614 11615 0
-11615 11669 0
-215 -11615 11616 0
-11616 11670 0
-216 -11616 11617 0
-11617 11671 0
-217 -11617 11618 0
-11618 11672 0
-218 -11618 11619 0
-11619 11673 0
-219 -11619 11620 0
-11620 11674 0
-220 -11620 11621 0
-11621 11675 0
-221 -11621 11622 0
-11622 11676 0
-222 -11622 11623 0
-11623 11677 0
-223 -11623 11624 0
-11624 11678 0
-224 -11624 11625 0
-11625 11679 0
-225 -11625 11626 0
-11626 11680 0
-226 -11626 11627 0
-11627 11681 0
-227 -11627 11628 0
-11628 11682 0
-228 -11628 11629 0
-11629 11683 0
-229 -11629 11630 0
-11630 11684 0
-230 -11630 11631 0
-11631 11685 0
-231 -11631 11632 0
-11632 11686 0
-232 -11632 11633 0
-11633 11687 0
-233 -11633 11634 0
-11634 11688 0
-234 -11634 11635 0
-11635 11689 0
-235 -11635 11636 0
-11636 11690 0
-236 -11636 11637 0
-11637 11691 0
-237 -11637 11638 0
-11638 11692 0
-238 -11638 11639 0
-11639 11693 0
-239 -11639 11640 0
-11640 11694 0
-240 -11640 11641 0
-11641 11695 0
-241 -11641 11642 0
-11642 11696 0
-242 -11642 11643 0
-11643 11697 0
-243 -11643 11644 0
-11644 11698 0
-244 -11644 11645 0
-11645 11699 0
-245 -11645 11646 0
-11646 11700 0
-246 -11646 11647 0
-11647 11701 0
-247 -11647 11648 0
-11648 11702 0
-248 -11648 11649 0
-11649 11703 0
-249 -11649 11650 0
-11650 11704 0
-250 -11650 11651 0
-11651 11705 0
-251 -11651 11652 0
-11652 11706 0
-252 -11652 11653 0
-11653 11707 0
-253 -11653 11654 0
-11654 11708 0
-254 -11654 11655 0
-11655 11709 0
-255 -11655 11656 0
-11656 11710 0
-256 -11656 11657 0
-11657 11711 0
-257 -11657 11658 0
-11658 11712 0
-258 -11658 11659 0
-11659 11713 0
-259 -11659 11660 0
-11660 11714 0
-260 -11660 11661 0
-11661 11715 0
-261 -11661 11662 0
-11662 11716 0
-262 -11662 11663 0
-11663 11717 0
-263 -11663 0
-210 11664 0
-11664 11718 0
-211 -11664 11665 0
-11665 11719 0
-212 -11665 11666 0
-11666 11720 0
-213 -11666 11667 0
-11667 11721 0
-214 -11667 11668 0
-11668 11722 0
-215 -11668 11669 0
-11669 11723 0
-216 -11669 11670 0
-11670 11724 0
-217 -11670 11671 0
-11671 11725 0
-218 -11671 11672 0
-11672 11726 0
-219 -11672 11673 0
-11673 11727 0
-220 -11673 11674 0
-11674 11728 0
-221 -11674 11675 0
-11675 11729 0
-222 -11675 11676 0
-11676 11730 0
-223 -11676 11677 0
-11677 11731 0
-224 -11677 11678 0
-11678 11732 0
-225 -11678 11679 0
-11679 11733 0
-226 -11679 11680 0
-11680 11734 0
-227 -11680 11681 0
-11681 11735 0
-228 -11681 11682 0
-11682 11736 0
-229 -11682 11683 0
-11683 11737 0
-230 -11683 11684 0
-11684 11738 0
-231 -11684 11685 0
-11685 11739 0
-232 -11685 11686 0
-11686 11740 0
-233 -11686 11687 0
-11687 11741 0
-234 -11687 11688 0
-11688 11742 0
-235 -11688 11689 0
-11689 11743 0
-236 -11689 11690 0
-11690 11744 0
-237 -11690 11691 0
-11691 11745 0
-238 -11691 11692 0
-11692 11746 0
-239 -11692 11693 0
-11693 11747 0
-240 -11693 11694 0
-11694 11748 0
-241 -11694 11695 0
-11695 11749 0
-242 -11695 11696 0
-11696 11750 0
-243 -11696 11697 0
-11697 11751 0
-244 -11697 11698 0
-11698 11752 0
-245 -11698 11699 0
-11699 11753 0
-246 -11699 11700 0
-11700 11754 0
-247 -11700 11701 0
-11701 11755 0
-248 -11701 11702 0
-11702 11756 0
-249 -11702 11703 0
-11703 11757 0
-250 -11703 11704 0
-11704 11758 0
-251 -11704 11705 0
-11705 11759 0
-252 -11705 11706 0
-11706 11760 0
-253 -11706 11707 0
-11707 11761 0
-254 -11707 11708 0
-11708 11762 0
-255 -11708 11709 0
-11709 11763 0
-256 -11709 11710 0
-11710 11764 0
-257 -11710 11711 0
-11711 11765 0
-258 -11711 11712 0
-11712 11766 0
-259 -11712 11713 0
-11713 11767 0
-260 -11713 11714 0
-11714 11768 0
-261 -11714 11715 0
-11715 11769 0
-262 -11715 11716 0
-11716 11770 0
-263 -11716 11717 0
-11717 11771 0
-264 -11717 0
-211 11718 0
-11718 11772 0
-212 -11718 11719 0
-11719 11773 0
-213 -11719 11720 0
-11720 11774 0
-214 -11720 11721 0
-11721 11775 0
-215 -11721 11722 0
-11722 11776 0
-216 -11722 11723 0
-11723 11777 0
-217 -11723 11724 0
-11724 11778 0
-218 -11724 11725 0
-11725 11779 0
-219 -11725 11726 0
-11726 11780 0
-220 -11726 11727 0
-11727 11781 0
-221 -11727 11728 0
-11728 11782 0
-222 -11728 11729 0
-11729 11783 0
-223 -11729 11730 0
-11730 11784 0
-224 -11730 11731 0
-11731 11785 0
-225 -11731 11732 0
-11732 11786 0
-226 -11732 11733 0
-11733 11787 0
-227 -11733 11734 0
-11734 11788 0
-228 -11734 11735 0
-11735 11789 0
-229 -11735 11736 0
-11736 11790 0
-230 -11736 11737 0
-11737 11791 0
-231 -11737 11738 0
-11738 11792 0
-232 -11738 11739 0
-11739 11793 0
-233 -11739 11740 0
-11740 11794 0
-234 -11740 11741 0
-11741 11795 0
-235 -11741 11742 0
-11742 11796 0
-236 -11742 11743 0
-11743 11797 0
-237 -11743 11744 0
-11744 11798 0
-238 -11744 11745 0
-11745 11799 0
-239 -11745 11746 0
-11746 11800 0
-240 -11746 11747 0
-11747 11801 0
-241 -11747 11748 0
-11748 11802 0
-242 -11748 11749 0
-11749 11803 0
-243 -11749 11750 0
-11750 11804 0
-244 -11750 11751 0
-11751 11805 0
-245 -11751 11752 0
-11752 11806 0
-246 -11752 11753 0
-11753 11807 0
-247 -11753 11754 0
-11754 11808 0
-248 -11754 11755 0
-11755 11809 0
-249 -11755 11756 0
-11756 11810 0
-250 -11756 11757 0
-11757 11811 0
-251 -11757 11758 0
-11758 11812 0
-252 -11758 11759 0
-11759 11813 0
-253 -11759 11760 0
-11760 11814 0
-254 -11760 11761 0
-11761 11815 0
-255 -11761 11762 0
-11762 11816 0
-256 -11762 11763 0
-11763 11817 0
-257 -11763 11764 0
-11764 11818 0
-258 -11764 11765 0
-11765 11819 0
-259 -11765 11766 0
-11766 11820 0
-260 -11766 11767 0
-11767 11821 0
-261 -11767 11768 0
-11768 11822 0
-262 -11768 11769 0
-11769 11823 0
-263 -11769 11770 0
-11770 11824 0
-264 -11770 11771 0
-11771 11825 0
-265 -11771 0
-212 11772 0
-11772 11826 0
-213 -11772 11773 0
-11773 11827 0
-214 -11773 11774 0
-11774 11828 0
-215 -11774 11775 0
-11775 11829 0
-216 -11775 11776 0
-11776 11830 0
-217 -11776 11777 0
-11777 11831 0
-218 -11777 11778 0
-11778 11832 0
-219 -11778 11779 0
-11779 11833 0
-220 -11779 11780 0
-11780 11834 0
-221 -11780 11781 0
-11781 11835 0
-222 -11781 11782 0
-11782 11836 0
-223 -11782 11783 0
-11783 11837 0
-224 -11783 11784 0
-11784 11838 0
-225 -11784 11785 0
-11785 11839 0
-226 -11785 11786 0
-11786 11840 0
-227 -11786 11787 0
-11787 11841 0
-228 -11787 11788 0
-11788 11842 0
-229 -11788 11789 0
-11789 11843 0
-230 -11789 11790 0
-11790 11844 0
-231 -11790 11791 0
-11791 11845 0
-232 -11791 11792 0
-11792 11846 0
-233 -11792 11793 0
-11793 11847 0
-234 -11793 11794 0
-11794 11848 0
-235 -11794 11795 0
-11795 11849 0
-236 -11795 11796 0
-11796 11850 0
-237 -11796 11797 0
-11797 11851 0
-238 -11797 11798 0
-11798 11852 0
-239 -11798 11799 0
-11799 11853 0
-240 -11799 11800 0
-11800 11854 0
-241 -11800 11801 0
-11801 11855 0
-242 -11801 11802 0
-11802 11856 0
-243 -11802 11803 0
-11803 11857 0
-244 -11803 11804 0
-11804 11858 0
-245 -11804 11805 0
-11805 11859 0
-246 -11805 11806 0
-11806 11860 0
-247 -11806 11807 0
-11807 11861 0
-248 -11807 11808 0
-11808 11862 0
-249 -11808 11809 0
-11809 11863 0
-250 -11809 11810 0
-11810 11864 0
-251 -11810 11811 0
-11811 11865 0
-252 -11811 11812 0
-11812 11866 0
-253 -11812 11813 0
-11813 11867 0
-254 -11813 11814 0
-11814 11868 0
-255 -11814 11815 0
-11815 11869 0
-256 -11815 11816 0
-11816 11870 0
-257 -11816 11817 0
-11817 11871 0
-258 -11817 11818 0
-11818 11872 0
-259 -11818 11819 0
-11819 11873 0
-260 -11819 11820 0
-11820 11874 0
-261 -11820 11821 0
-11821 11875 0
-262 -11821 11822 0
-11822 11876 0
-263 -11822 11823 0
-11823 11877 0
-264 -11823 11824 0
-11824 11878 0
-265 -11824 11825 0
-11825 11879 0
-266 -11825 0
-213 11826 0
-11826 11880 0
-214 -11826 11827 0
-11827 11881 0
-215 -11827 11828 0
-11828 11882 0
-216 -11828 11829 0
-11829 11883 0
-217 -11829 11830 0
-11830 11884 0
-218 -11830 11831 0
-11831 11885 0
-219 -11831 11832 0
-11832 11886 0
-220 -11832 11833 0
-11833 11887 0
-221 -11833 11834 0
-11834 11888 0
-222 -11834 11835 0
-11835 11889 0
-223 -11835 11836 0
-11836 11890 0
-224 -11836 11837 0
-11837 11891 0
-225 -11837 11838 0
-11838 11892 0
-226 -11838 11839 0
-11839 11893 0
-227 -11839 11840 0
-11840 11894 0
-228 -11840 11841 0
-11841 11895 0
-229 -11841 11842 0
-11842 11896 0
-230 -11842 11843 0
-11843 11897 0
-231 -11843 11844 0
-11844 11898 0
-232 -11844 11845 0
-11845 11899 0
-233 -11845 11846 0
-11846 11900 0
-234 -11846 11847 0
-11847 11901 0
-235 -11847 11848 0
-11848 11902 0
-236 -11848 11849 0
-11849 11903 0
-237 -11849 11850 0
-11850 11904 0
-238 -11850 11851 0
-11851 11905 0
-239 -11851 11852 0
-11852 11906 0
-240 -11852 11853 0
-11853 11907 0
-241 -11853 11854 0
-11854 11908 0
-242 -11854 11855 0
-11855 11909 0
-243 -11855 11856 0
-11856 11910 0
-244 -11856 11857 0
-11857 11911 0
-245 -11857 11858 0
-11858 11912 0
-246 -11858 11859 0
-11859 11913 0
-247 -11859 11860 0
-11860 11914 0
-248 -11860 11861 0
-11861 11915 0
-249 -11861 11862 0
-11862 11916 0
-250 -11862 11863 0
-11863 11917 0
-251 -11863 11864 0
-11864 11918 0
-252 -11864 11865 0
-11865 11919 0
-253 -11865 11866 0
-11866 11920 0
-254 -11866 11867 0
-11867 11921 0
-255 -11867 11868 0
-11868 11922 0
-256 -11868 11869 0
-11869 11923 0
-257 -11869 11870 0
-11870 11924 0
-258 -11870 11871 0
-11871 11925 0
-259 -11871 11872 0
-11872 11926 0
-260 -11872 11873 0
-11873 11927 0
-261 -11873 11874 0
-11874 11928 0
-262 -11874 11875 0
-11875 11929 0
-263 -11875 11876 0
-11876 11930 0
-264 -11876 11877 0
-11877 11931 0
-265 -11877 11878 0
-11878 11932 0
-266 -11878 11879 0
-11879 11933 0
-267 -11879 0
-214 11880 0
-11880 11934 0
-215 -11880 11881 0
-11881 11935 0
-216 -11881 11882 0
-11882 11936 0
-217 -11882 11883 0
-11883 11937 0
-218 -11883 11884 0
-11884 11938 0
-219 -11884 11885 0
-11885 11939 0
-220 -11885 11886 0
-11886 11940 0
-221 -11886 11887 0
-11887 11941 0
-222 -11887 11888 0
-11888 11942 0
-223 -11888 11889 0
-11889 11943 0
-224 -11889 11890 0
-11890 11944 0
-225 -11890 11891 0
-11891 11945 0
-226 -11891 11892 0
-11892 11946 0
-227 -11892 11893 0
-11893 11947 0
-228 -11893 11894 0
-11894 11948 0
-229 -11894 11895 0
-11895 11949 0
-230 -11895 11896 0
-11896 11950 0
-231 -11896 11897 0
-11897 11951 0
-232 -11897 11898 0
-11898 11952 0
-233 -11898 11899 0
-11899 11953 0
-234 -11899 11900 0
-11900 11954 0
-235 -11900 11901 0
-11901 11955 0
-236 -11901 11902 0
-11902 11956 0
-237 -11902 11903 0
-11903 11957 0
-238 -11903 11904 0
-11904 11958 0
-239 -11904 11905 0
-11905 11959 0
-240 -11905 11906 0
-11906 11960 0
-241 -11906 11907 0
-11907 11961 0
-242 -11907 11908 0
-11908 11962 0
-243 -11908 11909 0
-11909 11963 0
-244 -11909 11910 0
-11910 11964 0
-245 -11910 11911 0
-11911 11965 0
-246 -11911 11912 0
-11912 11966 0
-247 -11912 11913 0
-11913 11967 0
-248 -11913 11914 0
-11914 11968 0
-249 -11914 11915 0
-11915 11969 0
-250 -11915 11916 0
-11916 11970 0
-251 -11916 11917 0
-11917 11971 0
-252 -11917 11918 0
-11918 11972 0
-253 -11918 11919 0
-11919 11973 0
-254 -11919 11920 0
-11920 11974 0
-255 -11920 11921 0
-11921 11975 0
-256 -11921 11922 0
-11922 11976 0
-257 -11922 11923 0
-11923 11977 0
-258 -11923 11924 0
-11924 11978 0
-259 -11924 11925 0
-11925 11979 0
-260 -11925 11926 0
-11926 11980 0
-261 -11926 11927 0
-11927 11981 0
-262 -11927 11928 0
-11928 11982 0
-263 -11928 11929 0
-11929 11983 0
-264 -11929 11930 0
-11930 11984 0
-265 -11930 11931 0
-11931 11985 0
-266 -11931 11932 0
-11932 11986 0
-267 -11932 11933 0
-11933 11987 0
-268 -11933 0
-215 11934 0
-11934 11988 0
-216 -11934 11935 0
-11935 11989 0
-217 -11935 11936 0
-11936 11990 0
-218 -11936 11937 0
-11937 11991 0
-219 -11937 11938 0
-11938 11992 0
-220 -11938 11939 0
-11939 11993 0
-221 -11939 11940 0
-11940 11994 0
-222 -11940 11941 0
-11941 11995 0
-223 -11941 11942 0
-11942 11996 0
-224 -11942 11943 0
-11943 11997 0
-225 -11943 11944 0
-11944 11998 0
-226 -11944 11945 0
-11945 11999 0
-227 -11945 11946 0
-11946 12000 0
-228 -11946 11947 0
-11947 12001 0
-229 -11947 11948 0
-11948 12002 0
-230 -11948 11949 0
-11949 12003 0
-231 -11949 11950 0
-11950 12004 0
-232 -11950 11951 0
-11951 12005 0
-233 -11951 11952 0
-11952 12006 0
-234 -11952 11953 0
-11953 12007 0
-235 -11953 11954 0
-11954 12008 0
-236 -11954 11955 0
-11955 12009 0
-237 -11955 11956 0
-11956 12010 0
-238 -11956 11957 0
-11957 12011 0
-239 -11957 11958 0
-11958 12012 0
-240 -11958 11959 0
-11959 12013 0
-241 -11959 11960 0
-11960 12014 0
-242 -11960 11961 0
-11961 12015 0
-243 -11961 11962 0
-11962 12016 0
-244 -11962 11963 0
-11963 12017 0
-245 -11963 11964 0
-11964 12018 0
-246 -11964 11965 0
-11965 12019 0
-247 -11965 11966 0
-11966 12020 0
-248 -11966 11967 0
-11967 12021 0
-249 -11967 11968 0
-11968 12022 0
-250 -11968 11969 0
-11969 12023 0
-251 -11969 11970 0
-11970 12024 0
-252 -11970 11971 0
-11971 12025 0
-253 -11971 11972 0
-11972 12026 0
-254 -11972 11973 0
-11973 12027 0
-255 -11973 11974 0
-11974 12028 0
-256 -11974 11975 0
-11975 12029 0
-257 -11975 11976 0
-11976 12030 0
-258 -11976 11977 0
-11977 12031 0
-259 -11977 11978 0
-11978 12032 0
-260 -11978 11979 0
-11979 12033 0
-261 -11979 11980 0
-11980 12034 0
-262 -11980 11981 0
-11981 12035 0
-263 -11981 11982 0
-11982 12036 0
-264 -11982 11983 0
-11983 12037 0
-265 -11983 11984 0
-11984 12038 0
-266 -11984 11985 0
-11985 12039 0
-267 -11985 11986 0
-11986 12040 0
-268 -11986 11987 0
-11987 12041 0
-269 -11987 0
-216 11988 0
-11988 12042 0
-217 -11988 11989 0
-11989 12043 0
-218 -11989 11990 0
-11990 12044 0
-219 -11990 11991 0
-11991 12045 0
-220 -11991 11992 0
-11992 12046 0
-221 -11992 11993 0
-11993 12047 0
-222 -11993 11994 0
-11994 12048 0
-223 -11994 11995 0
-11995 12049 0
-224 -11995 11996 0
-11996 12050 0
-225 -11996 11997 0
-11997 12051 0
-226 -11997 11998 0
-11998 12052 0
-227 -11998 11999 0
-11999 12053 0
-228 -11999 12000 0
-12000 12054 0
-229 -12000 12001 0
-12001 12055 0
-230 -12001 12002 0
-12002 12056 0
-231 -12002 12003 0
-12003 12057 0
-232 -12003 12004 0
-12004 12058 0
-233 -12004 12005 0
-12005 12059 0
-234 -12005 12006 0
-12006 12060 0
-235 -12006 12007 0
-12007 12061 0
-236 -12007 12008 0
-12008 12062 0
-237 -12008 12009 0
-12009 12063 0
-238 -12009 12010 0
-12010 12064 0
-239 -12010 12011 0
-12011 12065 0
-240 -12011 12012 0
-12012 12066 0
-241 -12012 12013 0
-12013 12067 0
-242 -12013 12014 0
-12014 12068 0
-243 -12014 12015 0
-12015 12069 0
-244 -12015 12016 0
-12016 12070 0
-245 -12016 12017 0
-12017 12071 0
-246 -12017 12018 0
-12018 12072 0
-247 -12018 12019 0
-12019 12073 0
-248 -12019 12020 0
-12020 12074 0
-249 -12020 12021 0
-12021 12075 0
-250 -12021 12022 0
-12022 12076 0
-251 -12022 12023 0
-12023 12077 0
-252 -12023 12024 0
-12024 12078 0
-253 -12024 12025 0
-12025 12079 0
-254 -12025 12026 0
-12026 12080 0
-255 -12026 12027 0
-12027 12081 0
-256 -12027 12028 0
-12028 12082 0
-257 -12028 12029 0
-12029 12083 0
-258 -12029 12030 0
-12030 12084 0
-259 -12030 12031 0
-12031 12085 0
-260 -12031 12032 0
-12032 12086 0
-261 -12032 12033 0
-12033 12087 0
-262 -12033 12034 0
-12034 12088 0
-263 -12034 12035 0
-12035 12089 0
-264 -12035 12036 0
-12036 12090 0
-265 -12036 12037 0
-12037 12091 0
-266 -12037 12038 0
-12038 12092 0
-267 -12038 12039 0
-12039 12093 0
-268 -12039 12040 0
-12040 12094 0
-269 -12040 12041 0
-12041 12095 0
-270 -12041 0
-217 12042 0
-12042 12096 0
-218 -12042 12043 0
-12043 12097 0
-219 -12043 12044 0
-12044 12098 0
-220 -12044 12045 0
-12045 12099 0
-221 -12045 12046 0
-12046 12100 0
-222 -12046 12047 0
-12047 12101 0
-223 -12047 12048 0
-12048 12102 0
-224 -12048 12049 0
-12049 12103 0
-225 -12049 12050 0
-12050 12104 0
-226 -12050 12051 0
-12051 12105 0
-227 -12051 12052 0
-12052 12106 0
-228 -12052 12053 0
-12053 12107 0
-229 -12053 12054 0
-12054 12108 0
-230 -12054 12055 0
-12055 12109 0
-231 -12055 12056 0
-12056 12110 0
-232 -12056 12057 0
-12057 12111 0
-233 -12057 12058 0
-12058 12112 0
-234 -12058 12059 0
-12059 12113 0
-235 -12059 12060 0
-12060 12114 0
-236 -12060 12061 0
-12061 12115 0
-237 -12061 12062 0
-12062 12116 0
-238 -12062 12063 0
-12063 12117 0
-239 -12063 12064 0
-12064 12118 0
-240 -12064 12065 0
-12065 12119 0
-241 -12065 12066 0
-12066 12120 0
-242 -12066 12067 0
-12067 12121 0
-243 -12067 12068 0
-12068 12122 0
-244 -12068 12069 0
-12069 12123 0
-245 -12069 12070 0
-12070 12124 0
-246 -12070 12071 0
-12071 12125 0
-247 -12071 12072 0
-12072 12126 0
-248 -12072 12073 0
-12073 12127 0
-249 -12073 12074 0
-12074 12128 0
-250 -12074 12075 0
-12075 12129 0
-251 -12075 12076 0
-12076 12130 0
-252 -12076 12077 0
-12077 12131 0
-253 -12077 12078 0
-12078 12132 0
-254 -12078 12079 0
-12079 12133 0
-255 -12079 12080 0
-12080 12134 0
-256 -12080 12081 0
-12081 12135 0
-257 -12081 12082 0
-12082 12136 0
-258 -12082 12083 0
-12083 12137 0
-259 -12083 12084 0
-12084 12138 0
-260 -12084 12085 0
-12085 12139 0
-261 -12085 12086 0
-12086 12140 0
-262 -12086 12087 0
-12087 12141 0
-263 -12087 12088 0
-12088 12142 0
-264 -12088 12089 0
-12089 12143 0
-265 -12089 12090 0
-12090 12144 0
-266 -12090 12091 0
-12091 12145 0
-267 -12091 12092 0
-12092 12146 0
-268 -12092 12093 0
-12093 12147 0
-269 -12093 12094 0
-12094 12148 0
-270 -12094 12095 0
-12095 12149 0
-271 -12095 0
-218 12096 0
-12096 12150 0
-219 -12096 12097 0
-12097 12151 0
-220 -12097 12098 0
-12098 12152 0
-221 -12098 12099 0
-12099 12153 0
-222 -12099 12100 0
-12100 12154 0
-223 -12100 12101 0
-12101 12155 0
-224 -12101 12102 0
-12102 12156 0
-225 -12102 12103 0
-12103 12157 0
-226 -12103 12104 0
-12104 12158 0
-227 -12104 12105 0
-12105 12159 0
-228 -12105 12106 0
-12106 12160 0
-229 -12106 12107 0
-12107 12161 0
-230 -12107 12108 0
-12108 12162 0
-231 -12108 12109 0
-12109 12163 0
-232 -12109 12110 0
-12110 12164 0
-233 -12110 12111 0
-12111 12165 0
-234 -12111 12112 0
-12112 12166 0
-235 -12112 12113 0
-12113 12167 0
-236 -12113 12114 0
-12114 12168 0
-237 -12114 12115 0
-12115 12169 0
-238 -12115 12116 0
-12116 12170 0
-239 -12116 12117 0
-12117 12171 0
-240 -12117 12118 0
-12118 12172 0
-241 -12118 12119 0
-12119 12173 0
-242 -12119 12120 0
-12120 12174 0
-243 -12120 12121 0
-12121 12175 0
-244 -12121 12122 0
-12122 12176 0
-245 -12122 12123 0
-12123 12177 0
-246 -12123 12124 0
-12124 12178 0
-247 -12124 12125 0
-12125 12179 0
-248 -12125 12126 0
-12126 12180 0
-249 -12126 12127 0
-12127 12181 0
-250 -12127 12128 0
-12128 12182 0
-251 -12128 12129 0
-12129 12183 0
-252 -12129 12130 0
-12130 12184 0
-253 -12130 12131 0
-12131 12185 0
-254 -12131 12132 0
-12132 12186 0
-255 -12132 12133 0
-12133 12187 0
-256 -12133 12134 0
-12134 12188 0
-257 -12134 12135 0
-12135 12189 0
-258 -12135 12136 0
-12136 12190 0
-259 -12136 12137 0
-12137 12191 0
-260 -12137 12138 0
-12138 12192 0
-261 -12138 12139 0
-12139 12193 0
-262 -12139 12140 0
-12140 12194 0
-263 -12140 12141 0
-12141 12195 0
-264 -12141 12142 0
-12142 12196 0
-265 -12142 12143 0
-12143 12197 0
-266 -12143 12144 0
-12144 12198 0
-267 -12144 12145 0
-12145 12199 0
-268 -12145 12146 0
-12146 12200 0
-269 -12146 12147 0
-12147 12201 0
-270 -12147 12148 0
-12148 12202 0
-271 -12148 12149 0
-12149 12203 0
-272 -12149 0
-219 12150 0
-12150 12204 0
-220 -12150 12151 0
-12151 12205 0
-221 -12151 12152 0
-12152 12206 0
-222 -12152 12153 0
-12153 12207 0
-223 -12153 12154 0
-12154 12208 0
-224 -12154 12155 0
-12155 12209 0
-225 -12155 12156 0
-12156 12210 0
-226 -12156 12157 0
-12157 12211 0
-227 -12157 12158 0
-12158 12212 0
-228 -12158 12159 0
-12159 12213 0
-229 -12159 12160 0
-12160 12214 0
-230 -12160 12161 0
-12161 12215 0
-231 -12161 12162 0
-12162 12216 0
-232 -12162 12163 0
-12163 12217 0
-233 -12163 12164 0
-12164 12218 0
-234 -12164 12165 0
-12165 12219 0
-235 -12165 12166 0
-12166 12220 0
-236 -12166 12167 0
-12167 12221 0
-237 -12167 12168 0
-12168 12222 0
-238 -12168 12169 0
-12169 12223 0
-239 -12169 12170 0
-12170 12224 0
-240 -12170 12171 0
-12171 12225 0
-241 -12171 12172 0
-12172 12226 0
-242 -12172 12173 0
-12173 12227 0
-243 -12173 12174 0
-12174 12228 0
-244 -12174 12175 0
-12175 12229 0
-245 -12175 12176 0
-12176 12230 0
-246 -12176 12177 0
-12177 12231 0
-247 -12177 12178 0
-12178 12232 0
-248 -12178 12179 0
-12179 12233 0
-249 -12179 12180 0
-12180 12234 0
-250 -12180 12181 0
-12181 12235 0
-251 -12181 12182 0
-12182 12236 0
-252 -12182 12183 0
-12183 12237 0
-253 -12183 12184 0
-12184 12238 0
-254 -12184 12185 0
-12185 12239 0
-255 -12185 12186 0
-12186 12240 0
-256 -12186 12187 0
-12187 12241 0
-257 -12187 12188 0
-12188 12242 0
-258 -12188 12189 0
-12189 12243 0
-259 -12189 12190 0
-12190 12244 0
-260 -12190 12191 0
-12191 12245 0
-261 -12191 12192 0
-12192 12246 0
-262 -12192 12193 0
-12193 12247 0
-263 -12193 12194 0
-12194 12248 0
-264 -12194 12195 0
-12195 12249 0
-265 -12195 12196 0
-12196 12250 0
-266 -12196 12197 0
-12197 12251 0
-267 -12197 12198 0
-12198 12252 0
-268 -12198 12199 0
-12199 12253 0
-269 -12199 12200 0
-12200 12254 0
-270 -12200 12201 0
-12201 12255 0
-271 -12201 12202 0
-12202 12256 0
-272 -12202 12203 0
-12203 12257 0
-273 -12203 0
-220 12204 0
-12204 12258 0
-221 -12204 12205 0
-12205 12259 0
-222 -12205 12206 0
-12206 12260 0
-223 -12206 12207 0
-12207 12261 0
-224 -12207 12208 0
-12208 12262 0
-225 -12208 12209 0
-12209 12263 0
-226 -12209 12210 0
-12210 12264 0
-227 -12210 12211 0
-12211 12265 0
-228 -12211 12212 0
-12212 12266 0
-229 -12212 12213 0
-12213 12267 0
-230 -12213 12214 0
-12214 12268 0
-231 -12214 12215 0
-12215 12269 0
-232 -12215 12216 0
-12216 12270 0
-233 -12216 12217 0
-12217 12271 0
-234 -12217 12218 0
-12218 12272 0
-235 -12218 12219 0
-12219 12273 0
-236 -12219 12220 0
-12220 12274 0
-237 -12220 12221 0
-12221 12275 0
-238 -12221 12222 0
-12222 12276 0
-239 -12222 12223 0
-12223 12277 0
-240 -12223 12224 0
-12224 12278 0
-241 -12224 12225 0
-12225 12279 0
-242 -12225 12226 0
-12226 12280 0
-243 -12226 12227 0
-12227 12281 0
-244 -12227 12228 0
-12228 12282 0
-245 -12228 12229 0
-12229 12283 0
-246 -12229 12230 0
-12230 12284 0
-247 -12230 12231 0
-12231 12285 0
-248 -12231 12232 0
-12232 12286 0
-249 -12232 12233 0
-12233 12287 0
-250 -12233 12234 0
-12234 12288 0
-251 -12234 12235 0
-12235 12289 0
-252 -12235 12236 0
-12236 12290 0
-253 -12236 12237 0
-12237 12291 0
-254 -12237 12238 0
-12238 12292 0
-255 -12238 12239 0
-12239 12293 0
-256 -12239 12240 0
-12240 12294 0
-257 -12240 12241 0
-12241 12295 0
-258 -12241 12242 0
-12242 12296 0
-259 -12242 12243 0
-12243 12297 0
-260 -12243 12244 0
-12244 12298 0
-261 -12244 12245 0
-12245 12299 0
-262 -12245 12246 0
-12246 12300 0
-263 -12246 12247 0
-12247 12301 0
-264 -12247 12248 0
-12248 12302 0
-265 -12248 12249 0
-12249 12303 0
-266 -12249 12250 0
-12250 12304 0
-267 -12250 12251 0
-12251 12305 0
-268 -12251 12252 0
-12252 12306 0
-269 -12252 12253 0
-12253 12307 0
-270 -12253 12254 0
-12254 12308 0
-271 -12254 12255 0
-12255 12309 0
-272 -12255 12256 0
-12256 12310 0
-273 -12256 12257 0
-12257 12311 0
-274 -12257 0
-221 12258 0
-12258 12312 0
-222 -12258 12259 0
-12259 12313 0
-223 -12259 12260 0
-12260 12314 0
-224 -12260 12261 0
-12261 12315 0
-225 -12261 12262 0
-12262 12316 0
-226 -12262 12263 0
-12263 12317 0
-227 -12263 12264 0
-12264 12318 0
-228 -12264 12265 0
-12265 12319 0
-229 -12265 12266 0
-12266 12320 0
-230 -12266 12267 0
-12267 12321 0
-231 -12267 12268 0
-12268 12322 0
-232 -12268 12269 0
-12269 12323 0
-233 -12269 12270 0
-12270 12324 0
-234 -12270 12271 0
-12271 12325 0
-235 -12271 12272 0
-12272 12326 0
-236 -12272 12273 0
-12273 12327 0
-237 -12273 12274 0
-12274 12328 0
-238 -12274 12275 0
-12275 12329 0
-239 -12275 12276 0
-12276 12330 0
-240 -12276 12277 0
-12277 12331 0
-241 -12277 12278 0
-12278 12332 0
-242 -12278 12279 0
-12279 12333 0
-243 -12279 12280 0
-12280 12334 0
-244 -12280 12281 0
-12281 12335 0
-245 -12281 12282 0
-12282 12336 0
-246 -12282 12283 0
-12283 12337 0
-247 -12283 12284 0
-12284 12338 0
-248 -12284 12285 0
-12285 12339 0
-249 -12285 12286 0
-12286 12340 0
-250 -12286 12287 0
-12287 12341 0
-251 -12287 12288 0
-12288 12342 0
-252 -12288 12289 0
-12289 12343 0
-253 -12289 12290 0
-12290 12344 0
-254 -12290 12291 0
-12291 12345 0
-255 -12291 12292 0
-12292 12346 0
-256 -12292 12293 0
-12293 12347 0
-257 -12293 12294 0
-12294 12348 0
-258 -12294 12295 0
-12295 12349 0
-259 -12295 12296 0
-12296 12350 0
-260 -12296 12297 0
-12297 12351 0
-261 -12297 12298 0
-12298 12352 0
-262 -12298 12299 0
-12299 12353 0
-263 -12299 12300 0
-12300 12354 0
-264 -12300 12301 0
-12301 12355 0
-265 -12301 12302 0
-12302 12356 0
-266 -12302 12303 0
-12303 12357 0
-267 -12303 12304 0
-12304 12358 0
-268 -12304 12305 0
-12305 12359 0
-269 -12305 12306 0
-12306 12360 0
-270 -12306 12307 0
-12307 12361 0
-271 -12307 12308 0
-12308 12362 0
-272 -12308 12309 0
-12309 12363 0
-273 -12309 12310 0
-12310 12364 0
-274 -12310 12311 0
-12311 12365 0
-275 -12311 0
-222 12312 0
-12312 12366 0
-223 -12312 12313 0
-12313 12367 0
-224 -12313 12314 0
-12314 12368 0
-225 -12314 12315 0
-12315 12369 0
-226 -12315 12316 0
-12316 12370 0
-227 -12316 12317 0
-12317 12371 0
-228 -12317 12318 0
-12318 12372 0
-229 -12318 12319 0
-12319 12373 0
-230 -12319 12320 0
-12320 12374 0
-231 -12320 12321 0
-12321 12375 0
-232 -12321 12322 0
-12322 12376 0
-233 -12322 12323 0
-12323 12377 0
-234 -12323 12324 0
-12324 12378 0
-235 -12324 12325 0
-12325 12379 0
-236 -12325 12326 0
-12326 12380 0
-237 -12326 12327 0
-12327 12381 0
-238 -12327 12328 0
-12328 12382 0
-239 -12328 12329 0
-12329 12383 0
-240 -12329 12330 0
-12330 12384 0
-241 -12330 12331 0
-12331 12385 0
-242 -12331 12332 0
-12332 12386 0
-243 -12332 12333 0
-12333 12387 0
-244 -12333 12334 0
-12334 12388 0
-245 -12334 12335 0
-12335 12389 0
-246 -12335 12336 0
-12336 12390 0
-247 -12336 12337 0
-12337 12391 0
-248 -12337 12338 0
-12338 12392 0
-249 -12338 12339 0
-12339 12393 0
-250 -12339 12340 0
-12340 12394 0
-251 -12340 12341 0
-12341 12395 0
-252 -12341 12342 0
-12342 12396 0
-253 -12342 12343 0
-12343 12397 0
-254 -12343 12344 0
-12344 12398 0
-255 -12344 12345 0
-12345 12399 0
-256 -12345 12346 0
-12346 12400 0
-257 -12346 12347 0
-12347 12401 0
-258 -12347 12348 0
-12348 12402 0
-259 -12348 12349 0
-12349 12403 0
-260 -12349 12350 0
-12350 12404 0
-261 -12350 12351 0
-12351 12405 0
-262 -12351 12352 0
-12352 12406 0
-263 -12352 12353 0
-12353 12407 0
-264 -12353 12354 0
-12354 12408 0
-265 -12354 12355 0
-12355 12409 0
-266 -12355 12356 0
-12356 12410 0
-267 -12356 12357 0
-12357 12411 0
-268 -12357 12358 0
-12358 12412 0
-269 -12358 12359 0
-12359 12413 0
-270 -12359 12360 0
-12360 12414 0
-271 -12360 12361 0
-12361 12415 0
-272 -12361 12362 0
-12362 12416 0
-273 -12362 12363 0
-12363 12417 0
-274 -12363 12364 0
-12364 12418 0
-275 -12364 12365 0
-12365 12419 0
-276 -12365 0
-223 12366 0
-12366 12420 0
-224 -12366 12367 0
-12367 12421 0
-225 -12367 12368 0
-12368 12422 0
-226 -12368 12369 0
-12369 12423 0
-227 -12369 12370 0
-12370 12424 0
-228 -12370 12371 0
-12371 12425 0
-229 -12371 12372 0
-12372 12426 0
-230 -12372 12373 0
-12373 12427 0
-231 -12373 12374 0
-12374 12428 0
-232 -12374 12375 0
-12375 12429 0
-233 -12375 12376 0
-12376 12430 0
-234 -12376 12377 0
-12377 12431 0
-235 -12377 12378 0
-12378 12432 0
-236 -12378 12379 0
-12379 12433 0
-237 -12379 12380 0
-12380 12434 0
-238 -12380 12381 0
-12381 12435 0
-239 -12381 12382 0
-12382 12436 0
-240 -12382 12383 0
-12383 12437 0
-241 -12383 12384 0
-12384 12438 0
-242 -12384 12385 0
-12385 12439 0
-243 -12385 12386 0
-12386 12440 0
-244 -12386 12387 0
-12387 12441 0
-245 -12387 12388 0
-12388 12442 0
-246 -12388 12389 0
-12389 12443 0
-247 -12389 12390 0
-12390 12444 0
-248 -12390 12391 0
-12391 12445 0
-249 -12391 12392 0
-12392 12446 0
-250 -12392 12393 0
-12393 12447 0
-251 -12393 12394 0
-12394 12448 0
-252 -12394 12395 0
-12395 12449 0
-253 -12395 12396 0
-12396 12450 0
-254 -12396 12397 0
-12397 12451 0
-255 -12397 12398 0
-12398 12452 0
-256 -12398 12399 0
-12399 12453 0
-257 -12399 12400 0
-12400 12454 0
-258 -12400 12401 0
-12401 12455 0
-259 -12401 12402 0
-12402 12456 0
-260 -12402 12403 0
-12403 12457 0
-261 -12403 12404 0
-12404 12458 0
-262 -12404 12405 0
-12405 12459 0
-263 -12405 12406 0
-12406 12460 0
-264 -12406 12407 0
-12407 12461 0
-265 -12407 12408 0
-12408 12462 0
-266 -12408 12409 0
-12409 12463 0
-267 -12409 12410 0
-12410 12464 0
-268 -12410 12411 0
-12411 12465 0
-269 -12411 12412 0
-12412 12466 0
-270 -12412 12413 0
-12413 12467 0
-271 -12413 12414 0
-12414 12468 0
-272 -12414 12415 0
-12415 12469 0
-273 -12415 12416 0
-12416 12470 0
-274 -12416 12417 0
-12417 12471 0
-275 -12417 12418 0
-12418 12472 0
-276 -12418 12419 0
-12419 12473 0
-277 -12419 0
-224 12420 0
-12420 12474 0
-225 -12420 12421 0
-12421 12475 0
-226 -12421 12422 0
-12422 12476 0
-227 -12422 12423 0
-12423 12477 0
-228 -12423 12424 0
-12424 12478 0
-229 -12424 12425 0
-12425 12479 0
-230 -12425 12426 0
-12426 12480 0
-231 -12426 12427 0
-12427 12481 0
-232 -12427 12428 0
-12428 12482 0
-233 -12428 12429 0
-12429 12483 0
-234 -12429 12430 0
-12430 12484 0
-235 -12430 12431 0
-12431 12485 0
-236 -12431 12432 0
-12432 12486 0
-237 -12432 12433 0
-12433 12487 0
-238 -12433 12434 0
-12434 12488 0
-239 -12434 12435 0
-12435 12489 0
-240 -12435 12436 0
-12436 12490 0
-241 -12436 12437 0
-12437 12491 0
-242 -12437 12438 0
-12438 12492 0
-243 -12438 12439 0
-12439 12493 0
-244 -12439 12440 0
-12440 12494 0
-245 -12440 12441 0
-12441 12495 0
-246 -12441 12442 0
-12442 12496 0
-247 -12442 12443 0
-12443 12497 0
-248 -12443 12444 0
-12444 12498 0
-249 -12444 12445 0
-12445 12499 0
-250 -12445 12446 0
-12446 12500 0
-251 -12446 12447 0
-12447 12501 0
-252 -12447 12448 0
-12448 12502 0
-253 -12448 12449 0
-12449 12503 0
-254 -12449 12450 0
-12450 12504 0
-255 -12450 12451 0
-12451 12505 0
-256 -12451 12452 0
-12452 12506 0
-257 -12452 12453 0
-12453 12507 0
-258 -12453 12454 0
-12454 12508 0
-259 -12454 12455 0
-12455 12509 0
-260 -12455 12456 0
-12456 12510 0
-261 -12456 12457 0
-12457 12511 0
-262 -12457 12458 0
-12458 12512 0
-263 -12458 12459 0
-12459 12513 0
-264 -12459 12460 0
-12460 12514 0
-265 -12460 12461 0
-12461 12515 0
-266 -12461 12462 0
-12462 12516 0
-267 -12462 12463 0
-12463 12517 0
-268 -12463 12464 0
-12464 12518 0
-269 -12464 12465 0
-12465 12519 0
-270 -12465 12466 0
-12466 12520 0
-271 -12466 12467 0
-12467 12521 0
-272 -12467 12468 0
-12468 12522 0
-273 -12468 12469 0
-12469 12523 0
-274 -12469 12470 0
-12470 12524 0
-275 -12470 12471 0
-12471 12525 0
-276 -12471 12472 0
-12472 12526 0
-277 -12472 12473 0
-12473 12527 0
-278 -12473 0
-225 12474 0
-12474 12528 0
-226 -12474 12475 0
-12475 12529 0
-227 -12475 12476 0
-12476 12530 0
-228 -12476 12477 0
-12477 12531 0
-229 -12477 12478 0
-12478 12532 0
-230 -12478 12479 0
-12479 12533 0
-231 -12479 12480 0
-12480 12534 0
-232 -12480 12481 0
-12481 12535 0
-233 -12481 12482 0
-12482 12536 0
-234 -12482 12483 0
-12483 12537 0
-235 -12483 12484 0
-12484 12538 0
-236 -12484 12485 0
-12485 12539 0
-237 -12485 12486 0
-12486 12540 0
-238 -12486 12487 0
-12487 12541 0
-239 -12487 12488 0
-12488 12542 0
-240 -12488 12489 0
-12489 12543 0
-241 -12489 12490 0
-12490 12544 0
-242 -12490 12491 0
-12491 12545 0
-243 -12491 12492 0
-12492 12546 0
-244 -12492 12493 0
-12493 12547 0
-245 -12493 12494 0
-12494 12548 0
-246 -12494 12495 0
-12495 12549 0
-247 -12495 12496 0
-12496 12550 0
-248 -12496 12497 0
-12497 12551 0
-249 -12497 12498 0
-12498 12552 0
-250 -12498 12499 0
-12499 12553 0
-251 -12499 12500 0
-12500 12554 0
-252 -12500 12501 0
-12501 12555 0
-253 -12501 12502 0
-12502 12556 0
-254 -12502 12503 0
-12503 12557 0
-255 -12503 12504 0
-12504 12558 0
-256 -12504 12505 0
-12505 12559 0
-257 -12505 12506 0
-12506 12560 0
-258 -12506 12507 0
-12507 12561 0
-259 -12507 12508 0
-12508 12562 0
-260 -12508 12509 0
-12509 12563 0
-261 -12509 12510 0
-12510 12564 0
-262 -12510 12511 0
-12511 12565 0
-263 -12511 12512 0
-12512 12566 0
-264 -12512 12513 0
-12513 12567 0
-265 -12513 12514 0
-12514 12568 0
-266 -12514 12515 0
-12515 12569 0
-267 -12515 12516 0
-12516 12570 0
-268 -12516 12517 0
-12517 12571 0
-269 -12517 12518 0
-12518 12572 0
-270 -12518 12519 0
-12519 12573 0
-271 -12519 12520 0
-12520 12574 0
-272 -12520 12521 0
-12521 12575 0
-273 -12521 12522 0
-12522 12576 0
-274 -12522 12523 0
-12523 12577 0
-275 -12523 12524 0
-12524 12578 0
-276 -12524 12525 0
-12525 12579 0
-277 -12525 12526 0
-12526 12580 0
-278 -12526 12527 0
-12527 12581 0
-279 -12527 0
-226 12528 0
-12528 12582 0
-227 -12528 12529 0
-12529 12583 0
-228 -12529 12530 0
-12530 12584 0
-229 -12530 12531 0
-12531 12585 0
-230 -12531 12532 0
-12532 12586 0
-231 -12532 12533 0
-12533 12587 0
-232 -12533 12534 0
-12534 12588 0
-233 -12534 12535 0
-12535 12589 0
-234 -12535 12536 0
-12536 12590 0
-235 -12536 12537 0
-12537 12591 0
-236 -12537 12538 0
-12538 12592 0
-237 -12538 12539 0
-12539 12593 0
-238 -12539 12540 0
-12540 12594 0
-239 -12540 12541 0
-12541 12595 0
-240 -12541 12542 0
-12542 12596 0
-241 -12542 12543 0
-12543 12597 0
-242 -12543 12544 0
-12544 12598 0
-243 -12544 12545 0
-12545 12599 0
-244 -12545 12546 0
-12546 12600 0
-245 -12546 12547 0
-12547 12601 0
-246 -12547 12548 0
-12548 12602 0
-247 -12548 12549 0
-12549 12603 0
-248 -12549 12550 0
-12550 12604 0
-249 -12550 12551 0
-12551 12605 0
-250 -12551 12552 0
-12552 12606 0
-251 -12552 12553 0
-12553 12607 0
-252 -12553 12554 0
-12554 12608 0
-253 -12554 12555 0
-12555 12609 0
-254 -12555 12556 0
-12556 12610 0
-255 -12556 12557 0
-12557 12611 0
-256 -12557 12558 0
-12558 12612 0
-257 -12558 12559 0
-12559 12613 0
-258 -12559 12560 0
-12560 12614 0
-259 -12560 12561 0
-12561 12615 0
-260 -12561 12562 0
-12562 12616 0
-261 -12562 12563 0
-12563 12617 0
-262 -12563 12564 0
-12564 12618 0
-263 -12564 12565 0
-12565 12619 0
-264 -12565 12566 0
-12566 12620 0
-265 -12566 12567 0
-12567 12621 0
-266 -12567 12568 0
-12568 12622 0
-267 -12568 12569 0
-12569 12623 0
-268 -12569 12570 0
-12570 12624 0
-269 -12570 12571 0
-12571 12625 0
-270 -12571 12572 0
-12572 12626 0
-271 -12572 12573 0
-12573 12627 0
-272 -12573 12574 0
-12574 12628 0
-273 -12574 12575 0
-12575 12629 0
-274 -12575 12576 0
-12576 12630 0
-275 -12576 12577 0
-12577 12631 0
-276 -12577 12578 0
-12578 12632 0
-277 -12578 12579 0
-12579 12633 0
-278 -12579 12580 0
-12580 12634 0
-279 -12580 12581 0
-12581 12635 0
-280 -12581 0
-227 12582 0
-12582 12636 0
-228 -12582 12583 0
-12583 12637 0
-229 -12583 12584 0
-12584 12638 0
-230 -12584 12585 0
-12585 12639 0
-231 -12585 12586 0
-12586 12640 0
-232 -12586 12587 0
-12587 12641 0
-233 -12587 12588 0
-12588 12642 0
-234 -12588 12589 0
-12589 12643 0
-235 -12589 12590 0
-12590 12644 0
-236 -12590 12591 0
-12591 12645 0
-237 -12591 12592 0
-12592 12646 0
-238 -12592 12593 0
-12593 12647 0
-239 -12593 12594 0
-12594 12648 0
-240 -12594 12595 0
-12595 12649 0
-241 -12595 12596 0
-12596 12650 0
-242 -12596 12597 0
-12597 12651 0
-243 -12597 12598 0
-12598 12652 0
-244 -12598 12599 0
-12599 12653 0
-245 -12599 12600 0
-12600 12654 0
-246 -12600 12601 0
-12601 12655 0
-247 -12601 12602 0
-12602 12656 0
-248 -12602 12603 0
-12603 12657 0
-249 -12603 12604 0
-12604 12658 0
-250 -12604 12605 0
-12605 12659 0
-251 -12605 12606 0
-12606 12660 0
-252 -12606 12607 0
-12607 12661 0
-253 -12607 12608 0
-12608 12662 0
-254 -12608 12609 0
-12609 12663 0
-255 -12609 12610 0
-12610 12664 0
-256 -12610 12611 0
-12611 12665 0
-257 -12611 12612 0
-12612 12666 0
-258 -12612 12613 0
-12613 12667 0
-259 -12613 12614 0
-12614 12668 0
-260 -12614 12615 0
-12615 12669 0
-261 -12615 12616 0
-12616 12670 0
-262 -12616 12617 0
-12617 12671 0
-263 -12617 12618 0
-12618 12672 0
-264 -12618 12619 0
-12619 12673 0
-265 -12619 12620 0
-12620 12674 0
-266 -12620 12621 0
-12621 12675 0
-267 -12621 12622 0
-12622 12676 0
-268 -12622 12623 0
-12623 12677 0
-269 -12623 12624 0
-12624 12678 0
-270 -12624 12625 0
-12625 12679 0
-271 -12625 12626 0
-12626 12680 0
-272 -12626 12627 0
-12627 12681 0
-273 -12627 12628 0
-12628 12682 0
-274 -12628 12629 0
-12629 12683 0
-275 -12629 12630 0
-12630 12684 0
-276 -12630 12631 0
-12631 12685 0
-277 -12631 12632 0
-12632 12686 0
-278 -12632 12633 0
-12633 12687 0
-279 -12633 12634 0
-12634 12688 0
-280 -12634 12635 0
-12635 12689 0
-281 -12635 0
-228 12636 0
-12636 12690 0
-229 -12636 12637 0
-12637 12691 0
-230 -12637 12638 0
-12638 12692 0
-231 -12638 12639 0
-12639 12693 0
-232 -12639 12640 0
-12640 12694 0
-233 -12640 12641 0
-12641 12695 0
-234 -12641 12642 0
-12642 12696 0
-235 -12642 12643 0
-12643 12697 0
-236 -12643 12644 0
-12644 12698 0
-237 -12644 12645 0
-12645 12699 0
-238 -12645 12646 0
-12646 12700 0
-239 -12646 12647 0
-12647 12701 0
-240 -12647 12648 0
-12648 12702 0
-241 -12648 12649 0
-12649 12703 0
-242 -12649 12650 0
-12650 12704 0
-243 -12650 12651 0
-12651 12705 0
-244 -12651 12652 0
-12652 12706 0
-245 -12652 12653 0
-12653 12707 0
-246 -12653 12654 0
-12654 12708 0
-247 -12654 12655 0
-12655 12709 0
-248 -12655 12656 0
-12656 12710 0
-249 -12656 12657 0
-12657 12711 0
-250 -12657 12658 0
-12658 12712 0
-251 -12658 12659 0
-12659 12713 0
-252 -12659 12660 0
-12660 12714 0
-253 -12660 12661 0
-12661 12715 0
-254 -12661 12662 0
-12662 12716 0
-255 -12662 12663 0
-12663 12717 0
-256 -12663 12664 0
-12664 12718 0
-257 -12664 12665 0
-12665 12719 0
-258 -12665 12666 0
-12666 12720 0
-259 -12666 12667 0
-12667 12721 0
-260 -12667 12668 0
-12668 12722 0
-261 -12668 12669 0
-12669 12723 0
-262 -12669 12670 0
-12670 12724 0
-263 -12670 12671 0
-12671 12725 0
-264 -12671 12672 0
-12672 12726 0
-265 -12672 12673 0
-12673 12727 0
-266 -12673 12674 0
-12674 12728 0
-267 -12674 12675 0
-12675 12729 0
-268 -12675 12676 0
-12676 12730 0
-269 -12676 12677 0
-12677 12731 0
-270 -12677 12678 0
-12678 12732 0
-271 -12678 12679 0
-12679 12733 0
-272 -12679 12680 0
-12680 12734 0
-273 -12680 12681 0
-12681 12735 0
-274 -12681 12682 0
-12682 12736 0
-275 -12682 12683 0
-12683 12737 0
-276 -12683 12684 0
-12684 12738 0
-277 -12684 12685 0
-12685 12739 0
-278 -12685 12686 0
-12686 12740 0
-279 -12686 12687 0
-12687 12741 0
-280 -12687 12688 0
-12688 12742 0
-281 -12688 12689 0
-12689 12743 0
-282 -12689 0
-229 12690 0
-12690 12744 0
-230 -12690 12691 0
-12691 12745 0
-231 -12691 12692 0
-12692 12746 0
-232 -12692 12693 0
-12693 12747 0
-233 -12693 12694 0
-12694 12748 0
-234 -12694 12695 0
-12695 12749 0
-235 -12695 12696 0
-12696 12750 0
-236 -12696 12697 0
-12697 12751 0
-237 -12697 12698 0
-12698 12752 0
-238 -12698 12699 0
-12699 12753 0
-239 -12699 12700 0
-12700 12754 0
-240 -12700 12701 0
-12701 12755 0
-241 -12701 12702 0
-12702 12756 0
-242 -12702 12703 0
-12703 12757 0
-243 -12703 12704 0
-12704 12758 0
-244 -12704 12705 0
-12705 12759 0
-245 -12705 12706 0
-12706 12760 0
-246 -12706 12707 0
-12707 12761 0
-247 -12707 12708 0
-12708 12762 0
-248 -12708 12709 0
-12709 12763 0
-249 -12709 12710 0
-12710 12764 0
-250 -12710 12711 0
-12711 12765 0
-251 -12711 12712 0
-12712 12766 0
-252 -12712 12713 0
-12713 12767 0
-253 -12713 12714 0
-12714 12768 0
-254 -12714 12715 0
-12715 12769 0
-255 -12715 12716 0
-12716 12770 0
-256 -12716 12717 0
-12717 12771 0
-257 -12717 12718 0
-12718 12772 0
-258 -12718 12719 0
-12719 12773 0
-259 -12719 12720 0
-12720 12774 0
-260 -12720 12721 0
-12721 12775 0
-261 -12721 12722 0
-12722 12776 0
-262 -12722 12723 0
-12723 12777 0
-263 -12723 12724 0
-12724 12778 0
-264 -12724 12725 0
-12725 12779 0
-265 -12725 12726 0
-12726 12780 0
-266 -12726 12727 0
-12727 12781 0
-267 -12727 12728 0
-12728 12782 0
-268 -12728 12729 0
-12729 12783 0
-269 -12729 12730 0
-12730 12784 0
-270 -12730 12731 0
-12731 12785 0
-271 -12731 12732 0
-12732 12786 0
-272 -12732 12733 0
-12733 12787 0
-273 -12733 12734 0
-12734 12788 0
-274 -12734 12735 0
-12735 12789 0
-275 -12735 12736 0
-12736 12790 0
-276 -12736 12737 0
-12737 12791 0
-277 -12737 12738 0
-12738 12792 0
-278 -12738 12739 0
-12739 12793 0
-279 -12739 12740 0
-12740 12794 0
-280 -12740 12741 0
-12741 12795 0
-281 -12741 12742 0
-12742 12796 0
-282 -12742 12743 0
-12743 12797 0
-283 -12743 0
-230 12744 0
-12744 12798 0
-231 -12744 12745 0
-12745 12799 0
-232 -12745 12746 0
-12746 12800 0
-233 -12746 12747 0
-12747 12801 0
-234 -12747 12748 0
-12748 12802 0
-235 -12748 12749 0
-12749 12803 0
-236 -12749 12750 0
-12750 12804 0
-237 -12750 12751 0
-12751 12805 0
-238 -12751 12752 0
-12752 12806 0
-239 -12752 12753 0
-12753 12807 0
-240 -12753 12754 0
-12754 12808 0
-241 -12754 12755 0
-12755 12809 0
-242 -12755 12756 0
-12756 12810 0
-243 -12756 12757 0
-12757 12811 0
-244 -12757 12758 0
-12758 12812 0
-245 -12758 12759 0
-12759 12813 0
-246 -12759 12760 0
-12760 12814 0
-247 -12760 12761 0
-12761 12815 0
-248 -12761 12762 0
-12762 12816 0
-249 -12762 12763 0
-12763 12817 0
-250 -12763 12764 0
-12764 12818 0
-251 -12764 12765 0
-12765 12819 0
-252 -12765 12766 0
-12766 12820 0
-253 -12766 12767 0
-12767 12821 0
-254 -12767 12768 0
-12768 12822 0
-255 -12768 12769 0
-12769 12823 0
-256 -12769 12770 0
-12770 12824 0
-257 -12770 12771 0
-12771 12825 0
-258 -12771 12772 0
-12772 12826 0
-259 -12772 12773 0
-12773 12827 0
-260 -12773 12774 0
-12774 12828 0
-261 -12774 12775 0
-12775 12829 0
-262 -12775 12776 0
-12776 12830 0
-263 -12776 12777 0
-12777 12831 0
-264 -12777 12778 0
-12778 12832 0
-265 -12778 12779 0
-12779 12833 0
-266 -12779 12780 0
-12780 12834 0
-267 -12780 12781 0
-12781 12835 0
-268 -12781 12782 0
-12782 12836 0
-269 -12782 12783 0
-12783 12837 0
-270 -12783 12784 0
-12784 12838 0
-271 -12784 12785 0
-12785 12839 0
-272 -12785 12786 0
-12786 12840 0
-273 -12786 12787 0
-12787 12841 0
-274 -12787 12788 0
-12788 12842 0
-275 -12788 12789 0
-12789 12843 0
-276 -12789 12790 0
-12790 12844 0
-277 -12790 12791 0
-12791 12845 0
-278 -12791 12792 0
-12792 12846 0
-279 -12792 12793 0
-12793 12847 0
-280 -12793 12794 0
-12794 12848 0
-281 -12794 12795 0
-12795 12849 0
-282 -12795 12796 0
-12796 12850 0
-283 -12796 12797 0
-12797 12851 0
-284 -12797 0
-231 12798 0
-12798 12852 0
-232 -12798 12799 0
-12799 12853 0
-233 -12799 12800 0
-12800 12854 0
-234 -12800 12801 0
-12801 12855 0
-235 -12801 12802 0
-12802 12856 0
-236 -12802 12803 0
-12803 12857 0
-237 -12803 12804 0
-12804 12858 0
-238 -12804 12805 0
-12805 12859 0
-239 -12805 12806 0
-12806 12860 0
-240 -12806 12807 0
-12807 12861 0
-241 -12807 12808 0
-12808 12862 0
-242 -12808 12809 0
-12809 12863 0
-243 -12809 12810 0
-12810 12864 0
-244 -12810 12811 0
-12811 12865 0
-245 -12811 12812 0
-12812 12866 0
-246 -12812 12813 0
-12813 12867 0
-247 -12813 12814 0
-12814 12868 0
-248 -12814 12815 0
-12815 12869 0
-249 -12815 12816 0
-12816 12870 0
-250 -12816 12817 0
-12817 12871 0
-251 -12817 12818 0
-12818 12872 0
-252 -12818 12819 0
-12819 12873 0
-253 -12819 12820 0
-12820 12874 0
-254 -12820 12821 0
-12821 12875 0
-255 -12821 12822 0
-12822 12876 0
-256 -12822 12823 0
-12823 12877 0
-257 -12823 12824 0
-12824 12878 0
-258 -12824 12825 0
-12825 12879 0
-259 -12825 12826 0
-12826 12880 0
-260 -12826 12827 0
-12827 12881 0
-261 -12827 12828 0
-12828 12882 0
-262 -12828 12829 0
-12829 12883 0
-263 -12829 12830 0
-12830 12884 0
-264 -12830 12831 0
-12831 12885 0
-265 -12831 12832 0
-12832 12886 0
-266 -12832 12833 0
-12833 12887 0
-267 -12833 12834 0
-12834 12888 0
-268 -12834 12835 0
-12835 12889 0
-269 -12835 12836 0
-12836 12890 0
-270 -12836 12837 0
-12837 12891 0
-271 -12837 12838 0
-12838 12892 0
-272 -12838 12839 0
-12839 12893 0
-273 -12839 12840 0
-12840 12894 0
-274 -12840 12841 0
-12841 12895 0
-275 -12841 12842 0
-12842 12896 0
-276 -12842 12843 0
-12843 12897 0
-277 -12843 12844 0
-12844 12898 0
-278 -12844 12845 0
-12845 12899 0
-279 -12845 12846 0
-12846 12900 0
-280 -12846 12847 0
-12847 12901 0
-281 -12847 12848 0
-12848 12902 0
-282 -12848 12849 0
-12849 12903 0
-283 -12849 12850 0
-12850 12904 0
-284 -12850 12851 0
-12851 12905 0
-285 -12851 0
-232 12852 0
-12852 12906 0
-233 -12852 12853 0
-12853 12907 0
-234 -12853 12854 0
-12854 12908 0
-235 -12854 12855 0
-12855 12909 0
-236 -12855 12856 0
-12856 12910 0
-237 -12856 12857 0
-12857 12911 0
-238 -12857 12858 0
-12858 12912 0
-239 -12858 12859 0
-12859 12913 0
-240 -12859 12860 0
-12860 12914 0
-241 -12860 12861 0
-12861 12915 0
-242 -12861 12862 0
-12862 12916 0
-243 -12862 12863 0
-12863 12917 0
-244 -12863 12864 0
-12864 12918 0
-245 -12864 12865 0
-12865 12919 0
-246 -12865 12866 0
-12866 12920 0
-247 -12866 12867 0
-12867 12921 0
-248 -12867 12868 0
-12868 12922 0
-249 -12868 12869 0
-12869 12923 0
-250 -12869 12870 0
-12870 12924 0
-251 -12870 12871 0
-12871 12925 0
-252 -12871 12872 0
-12872 12926 0
-253 -12872 12873 0
-12873 12927 0
-254 -12873 12874 0
-12874 12928 0
-255 -12874 12875 0
-12875 12929 0
-256 -12875 12876 0
-12876 12930 0
-257 -12876 12877 0
-12877 12931 0
-258 -12877 12878 0
-12878 12932 0
-259 -12878 12879 0
-12879 12933 0
-260 -12879 12880 0
-12880 12934 0
-261 -12880 12881 0
-12881 12935 0
-262 -12881 12882 0
-12882 12936 0
-263 -12882 12883 0
-12883 12937 0
-264 -12883 12884 0
-12884 12938 0
-265 -12884 12885 0
-12885 12939 0
-266 -12885 12886 0
-12886 12940 0
-267 -12886 12887 0
-12887 12941 0
-268 -12887 12888 0
-12888 12942 0
-269 -12888 12889 0
-12889 12943 0
-270 -12889 12890 0
-12890 12944 0
-271 -12890 12891 0
-12891 12945 0
-272 -12891 12892 0
-12892 12946 0
-273 -12892 12893 0
-12893 12947 0
-274 -12893 12894 0
-12894 12948 0
-275 -12894 12895 0
-12895 12949 0
-276 -12895 12896 0
-12896 12950 0
-277 -12896 12897 0
-12897 12951 0
-278 -12897 12898 0
-12898 12952 0
-279 -12898 12899 0
-12899 12953 0
-280 -12899 12900 0
-12900 12954 0
-281 -12900 12901 0
-12901 12955 0
-282 -12901 12902 0
-12902 12956 0
-283 -12902 12903 0
-12903 12957 0
-284 -12903 12904 0
-12904 12958 0
-285 -12904 12905 0
-12905 12959 0
-286 -12905 0
-233 12906 0
-12906 12960 0
-234 -12906 12907 0
-12907 12961 0
-235 -12907 12908 0
-12908 12962 0
-236 -12908 12909 0
-12909 12963 0
-237 -12909 12910 0
-12910 12964 0
-238 -12910 12911 0
-12911 12965 0
-239 -12911 12912 0
-12912 12966 0
-240 -12912 12913 0
-12913 12967 0
-241 -12913 12914 0
-12914 12968 0
-242 -12914 12915 0
-12915 12969 0
-243 -12915 12916 0
-12916 12970 0
-244 -12916 12917 0
-12917 12971 0
-245 -12917 12918 0
-12918 12972 0
-246 -12918 12919 0
-12919 12973 0
-247 -12919 12920 0
-12920 12974 0
-248 -12920 12921 0
-12921 12975 0
-249 -12921 12922 0
-12922 12976 0
-250 -12922 12923 0
-12923 12977 0
-251 -12923 12924 0
-12924 12978 0
-252 -12924 12925 0
-12925 12979 0
-253 -12925 12926 0
-12926 12980 0
-254 -12926 12927 0
-12927 12981 0
-255 -12927 12928 0
-12928 12982 0
-256 -12928 12929 0
-12929 12983 0
-257 -12929 12930 0
-12930 12984 0
-258 -12930 12931 0
-12931 12985 0
-259 -12931 12932 0
-12932 12986 0
-260 -12932 12933 0
-12933 12987 0
-261 -12933 12934 0
-12934 12988 0
-262 -12934 12935 0
-12935 12989 0
-263 -12935 12936 0
-12936 12990 0
-264 -12936 12937 0
-12937 12991 0
-265 -12937 12938 0
-12938 12992 0
-266 -12938 12939 0
-12939 12993 0
-267 -12939 12940 0
-12940 12994 0
-268 -12940 12941 0
-12941 12995 0
-269 -12941 12942 0
-12942 12996 0
-270 -12942 12943 0
-12943 12997 0
-271 -12943 12944 0
-12944 12998 0
-272 -12944 12945 0
-12945 12999 0
-273 -12945 12946 0
-12946 13000 0
-274 -12946 12947 0
-12947 13001 0
-275 -12947 12948 0
-12948 13002 0
-276 -12948 12949 0
-12949 13003 0
-277 -12949 12950 0
-12950 13004 0
-278 -12950 12951 0
-12951 13005 0
-279 -12951 12952 0
-12952 13006 0
-280 -12952 12953 0
-12953 13007 0
-281 -12953 12954 0
-12954 13008 0
-282 -12954 12955 0
-12955 13009 0
-283 -12955 12956 0
-12956 13010 0
-284 -12956 12957 0
-12957 13011 0
-285 -12957 12958 0
-12958 13012 0
-286 -12958 12959 0
-12959 13013 0
-287 -12959 0
-234 12960 0
-12960 13014 0
-235 -12960 12961 0
-12961 13015 0
-236 -12961 12962 0
-12962 13016 0
-237 -12962 12963 0
-12963 13017 0
-238 -12963 12964 0
-12964 13018 0
-239 -12964 12965 0
-12965 13019 0
-240 -12965 12966 0
-12966 13020 0
-241 -12966 12967 0
-12967 13021 0
-242 -12967 12968 0
-12968 13022 0
-243 -12968 12969 0
-12969 13023 0
-244 -12969 12970 0
-12970 13024 0
-245 -12970 12971 0
-12971 13025 0
-246 -12971 12972 0
-12972 13026 0
-247 -12972 12973 0
-12973 13027 0
-248 -12973 12974 0
-12974 13028 0
-249 -12974 12975 0
-12975 13029 0
-250 -12975 12976 0
-12976 13030 0
-251 -12976 12977 0
-12977 13031 0
-252 -12977 12978 0
-12978 13032 0
-253 -12978 12979 0
-12979 13033 0
-254 -12979 12980 0
-12980 13034 0
-255 -12980 12981 0
-12981 13035 0
-256 -12981 12982 0
-12982 13036 0
-257 -12982 12983 0
-12983 13037 0
-258 -12983 12984 0
-12984 13038 0
-259 -12984 12985 0
-12985 13039 0
-260 -12985 12986 0
-12986 13040 0
-261 -12986 12987 0
-12987 13041 0
-262 -12987 12988 0
-12988 13042 0
-263 -12988 12989 0
-12989 13043 0
-264 -12989 12990 0
-12990 13044 0
-265 -12990 12991 0
-12991 13045 0
-266 -12991 12992 0
-12992 13046 0
-267 -12992 12993 0
-12993 13047 0
-268 -12993 12994 0
-12994 13048 0
-269 -12994 12995 0
-12995 13049 0
-270 -12995 12996 0
-12996 13050 0
-271 -12996 12997 0
-12997 13051 0
-272 -12997 12998 0
-12998 13052 0
-273 -12998 12999 0
-12999 13053 0
-274 -12999 13000 0
-13000 13054 0
-275 -13000 13001 0
-13001 13055 0
-276 -13001 13002 0
-13002 13056 0
-277 -13002 13003 0
-13003 13057 0
-278 -13003 13004 0
-13004 13058 0
-279 -13004 13005 0
-13005 13059 0
-280 -13005 13006 0
-13006 13060 0
-281 -13006 13007 0
-13007 13061 0
-282 -13007 13008 0
-13008 13062 0
-283 -13008 13009 0
-13009 13063 0
-284 -13009 13010 0
-13010 13064 0
-285 -13010 13011 0
-13011 13065 0
-286 -13011 13012 0
-13012 13066 0
-287 -13012 13013 0
-13013 13067 0
-288 -13013 0
-235 13014 0
-13014 13068 0
-236 -13014 13015 0
-13015 13069 0
-237 -13015 13016 0
-13016 13070 0
-238 -13016 13017 0
-13017 13071 0
-239 -13017 13018 0
-13018 13072 0
-240 -13018 13019 0
-13019 13073 0
-241 -13019 13020 0
-13020 13074 0
-242 -13020 13021 0
-13021 13075 0
-243 -13021 13022 0
-13022 13076 0
-244 -13022 13023 0
-13023 13077 0
-245 -13023 13024 0
-13024 13078 0
-246 -13024 13025 0
-13025 13079 0
-247 -13025 13026 0
-13026 13080 0
-248 -13026 13027 0
-13027 13081 0
-249 -13027 13028 0
-13028 13082 0
-250 -13028 13029 0
-13029 13083 0
-251 -13029 13030 0
-13030 13084 0
-252 -13030 13031 0
-13031 13085 0
-253 -13031 13032 0
-13032 13086 0
-254 -13032 13033 0
-13033 13087 0
-255 -13033 13034 0
-13034 13088 0
-256 -13034 13035 0
-13035 13089 0
-257 -13035 13036 0
-13036 13090 0
-258 -13036 13037 0
-13037 13091 0
-259 -13037 13038 0
-13038 13092 0
-260 -13038 13039 0
-13039 13093 0
-261 -13039 13040 0
-13040 13094 0
-262 -13040 13041 0
-13041 13095 0
-263 -13041 13042 0
-13042 13096 0
-264 -13042 13043 0
-13043 13097 0
-265 -13043 13044 0
-13044 13098 0
-266 -13044 13045 0
-13045 13099 0
-267 -13045 13046 0
-13046 13100 0
-268 -13046 13047 0
-13047 13101 0
-269 -13047 13048 0
-13048 13102 0
-270 -13048 13049 0
-13049 13103 0
-271 -13049 13050 0
-13050 13104 0
-272 -13050 13051 0
-13051 13105 0
-273 -13051 13052 0
-13052 13106 0
-274 -13052 13053 0
-13053 13107 0
-275 -13053 13054 0
-13054 13108 0
-276 -13054 13055 0
-13055 13109 0
-277 -13055 13056 0
-13056 13110 0
-278 -13056 13057 0
-13057 13111 0
-279 -13057 13058 0
-13058 13112 0
-280 -13058 13059 0
-13059 13113 0
-281 -13059 13060 0
-13060 13114 0
-282 -13060 13061 0
-13061 13115 0
-283 -13061 13062 0
-13062 13116 0
-284 -13062 13063 0
-13063 13117 0
-285 -13063 13064 0
-13064 13118 0
-286 -13064 13065 0
-13065 13119 0
-287 -13065 13066 0
-13066 13120 0
-288 -13066 13067 0
-13067 13121 0
-289 -13067 0
-236 13068 0
-13068 13122 0
-237 -13068 13069 0
-13069 13123 0
-238 -13069 13070 0
-13070 13124 0
-239 -13070 13071 0
-13071 13125 0
-240 -13071 13072 0
-13072 13126 0
-241 -13072 13073 0
-13073 13127 0
-242 -13073 13074 0
-13074 13128 0
-243 -13074 13075 0
-13075 13129 0
-244 -13075 13076 0
-13076 13130 0
-245 -13076 13077 0
-13077 13131 0
-246 -13077 13078 0
-13078 13132 0
-247 -13078 13079 0
-13079 13133 0
-248 -13079 13080 0
-13080 13134 0
-249 -13080 13081 0
-13081 13135 0
-250 -13081 13082 0
-13082 13136 0
-251 -13082 13083 0
-13083 13137 0
-252 -13083 13084 0
-13084 13138 0
-253 -13084 13085 0
-13085 13139 0
-254 -13085 13086 0
-13086 13140 0
-255 -13086 13087 0
-13087 13141 0
-256 -13087 13088 0
-13088 13142 0
-257 -13088 13089 0
-13089 13143 0
-258 -13089 13090 0
-13090 13144 0
-259 -13090 13091 0
-13091 13145 0
-260 -13091 13092 0
-13092 13146 0
-261 -13092 13093 0
-13093 13147 0
-262 -13093 13094 0
-13094 13148 0
-263 -13094 13095 0
-13095 13149 0
-264 -13095 13096 0
-13096 13150 0
-265 -13096 13097 0
-13097 13151 0
-266 -13097 13098 0
-13098 13152 0
-267 -13098 13099 0
-13099 13153 0
-268 -13099 13100 0
-13100 13154 0
-269 -13100 13101 0
-13101 13155 0
-270 -13101 13102 0
-13102 13156 0
-271 -13102 13103 0
-13103 13157 0
-272 -13103 13104 0
-13104 13158 0
-273 -13104 13105 0
-13105 13159 0
-274 -13105 13106 0
-13106 13160 0
-275 -13106 13107 0
-13107 13161 0
-276 -13107 13108 0
-13108 13162 0
-277 -13108 13109 0
-13109 13163 0
-278 -13109 13110 0
-13110 13164 0
-279 -13110 13111 0
-13111 13165 0
-280 -13111 13112 0
-13112 13166 0
-281 -13112 13113 0
-13113 13167 0
-282 -13113 13114 0
-13114 13168 0
-283 -13114 13115 0
-13115 13169 0
-284 -13115 13116 0
-13116 13170 0
-285 -13116 13117 0
-13117 13171 0
-286 -13117 13118 0
-13118 13172 0
-287 -13118 13119 0
-13119 13173 0
-288 -13119 13120 0
-13120 13174 0
-289 -13120 13121 0
-13121 13175 0
-290 -13121 0
-237 13122 0
-13122 13176 0
-238 -13122 13123 0
-13123 13177 0
-239 -13123 13124 0
-13124 13178 0
-240 -13124 13125 0
-13125 13179 0
-241 -13125 13126 0
-13126 13180 0
-242 -13126 13127 0
-13127 13181 0
-243 -13127 13128 0
-13128 13182 0
-244 -13128 13129 0
-13129 13183 0
-245 -13129 13130 0
-13130 13184 0
-246 -13130 13131 0
-13131 13185 0
-247 -13131 13132 0
-13132 13186 0
-248 -13132 13133 0
-13133 13187 0
-249 -13133 13134 0
-13134 13188 0
-250 -13134 13135 0
-13135 13189 0
-251 -13135 13136 0
-13136 13190 0
-252 -13136 13137 0
-13137 13191 0
-253 -13137 13138 0
-13138 13192 0
-254 -13138 13139 0
-13139 13193 0
-255 -13139 13140 0
-13140 13194 0
-256 -13140 13141 0
-13141 13195 0
-257 -13141 13142 0
-13142 13196 0
-258 -13142 13143 0
-13143 13197 0
-259 -13143 13144 0
-13144 13198 0
-260 -13144 13145 0
-13145 13199 0
-261 -13145 13146 0
-13146 13200 0
-262 -13146 13147 0
-13147 13201 0
-263 -13147 13148 0
-13148 13202 0
-264 -13148 13149 0
-13149 13203 0
-265 -13149 13150 0
-13150 13204 0
-266 -13150 13151 0
-13151 13205 0
-267 -13151 13152 0
-13152 13206 0
-268 -13152 13153 0
-13153 13207 0
-269 -13153 13154 0
-13154 13208 0
-270 -13154 13155 0
-13155 13209 0
-271 -13155 13156 0
-13156 13210 0
-272 -13156 13157 0
-13157 13211 0
-273 -13157 13158 0
-13158 13212 0
-274 -13158 13159 0
-13159 13213 0
-275 -13159 13160 0
-13160 13214 0
-276 -13160 13161 0
-13161 13215 0
-277 -13161 13162 0
-13162 13216 0
-278 -13162 13163 0
-13163 13217 0
-279 -13163 13164 0
-13164 13218 0
-280 -13164 13165 0
-13165 13219 0
-281 -13165 13166 0
-13166 13220 0
-282 -13166 13167 0
-13167 13221 0
-283 -13167 13168 0
-13168 13222 0
-284 -13168 13169 0
-13169 13223 0
-285 -13169 13170 0
-13170 13224 0
-286 -13170 13171 0
-13171 13225 0
-287 -13171 13172 0
-13172 13226 0
-288 -13172 13173 0
-13173 13227 0
-289 -13173 13174 0
-13174 13228 0
-290 -13174 13175 0
-13175 13229 0
-291 -13175 0
-238 13176 0
-13176 13230 0
-239 -13176 13177 0
-13177 13231 0
-240 -13177 13178 0
-13178 13232 0
-241 -13178 13179 0
-13179 13233 0
-242 -13179 13180 0
-13180 13234 0
-243 -13180 13181 0
-13181 13235 0
-244 -13181 13182 0
-13182 13236 0
-245 -13182 13183 0
-13183 13237 0
-246 -13183 13184 0
-13184 13238 0
-247 -13184 13185 0
-13185 13239 0
-248 -13185 13186 0
-13186 13240 0
-249 -13186 13187 0
-13187 13241 0
-250 -13187 13188 0
-13188 13242 0
-251 -13188 13189 0
-13189 13243 0
-252 -13189 13190 0
-13190 13244 0
-253 -13190 13191 0
-13191 13245 0
-254 -13191 13192 0
-13192 13246 0
-255 -13192 13193 0
-13193 13247 0
-256 -13193 13194 0
-13194 13248 0
-257 -13194 13195 0
-13195 13249 0
-258 -13195 13196 0
-13196 13250 0
-259 -13196 13197 0
-13197 13251 0
-260 -13197 13198 0
-13198 13252 0
-261 -13198 13199 0
-13199 13253 0
-262 -13199 13200 0
-13200 13254 0
-263 -13200 13201 0
-13201 13255 0
-264 -13201 13202 0
-13202 13256 0
-265 -13202 13203 0
-13203 13257 0
-266 -13203 13204 0
-13204 13258 0
-267 -13204 13205 0
-13205 13259 0
-268 -13205 13206 0
-13206 13260 0
-269 -13206 13207 0
-13207 13261 0
-270 -13207 13208 0
-13208 13262 0
-271 -13208 13209 0
-13209 13263 0
-272 -13209 13210 0
-13210 13264 0
-273 -13210 13211 0
-13211 13265 0
-274 -13211 13212 0
-13212 13266 0
-275 -13212 13213 0
-13213 13267 0
-276 -13213 13214 0
-13214 13268 0
-277 -13214 13215 0
-13215 13269 0
-278 -13215 13216 0
-13216 13270 0
-279 -13216 13217 0
-13217 13271 0
-280 -13217 13218 0
-13218 13272 0
-281 -13218 13219 0
-13219 13273 0
-282 -13219 13220 0
-13220 13274 0
-283 -13220 13221 0
-13221 13275 0
-284 -13221 13222 0
-13222 13276 0
-285 -13222 13223 0
-13223 13277 0
-286 -13223 13224 0
-13224 13278 0
-287 -13224 13225 0
-13225 13279 0
-288 -13225 13226 0
-13226 13280 0
-289 -13226 13227 0
-13227 13281 0
-290 -13227 13228 0
-13228 13282 0
-291 -13228 13229 0
-13229 13283 0
-292 -13229 0
-239 13230 0
-13230 13284 0
-240 -13230 13231 0
-13231 13285 0
-241 -13231 13232 0
-13232 13286 0
-242 -13232 13233 0
-13233 13287 0
-243 -13233 13234 0
-13234 13288 0
-244 -13234 13235 0
-13235 13289 0
-245 -13235 13236 0
-13236 13290 0
-246 -13236 13237 0
-13237 13291 0
-247 -13237 13238 0
-13238 13292 0
-248 -13238 13239 0
-13239 13293 0
-249 -13239 13240 0
-13240 13294 0
-250 -13240 13241 0
-13241 13295 0
-251 -13241 13242 0
-13242 13296 0
-252 -13242 13243 0
-13243 13297 0
-253 -13243 13244 0
-13244 13298 0
-254 -13244 13245 0
-13245 13299 0
-255 -13245 13246 0
-13246 13300 0
-256 -13246 13247 0
-13247 13301 0
-257 -13247 13248 0
-13248 13302 0
-258 -13248 13249 0
-13249 13303 0
-259 -13249 13250 0
-13250 13304 0
-260 -13250 13251 0
-13251 13305 0
-261 -13251 13252 0
-13252 13306 0
-262 -13252 13253 0
-13253 13307 0
-263 -13253 13254 0
-13254 13308 0
-264 -13254 13255 0
-13255 13309 0
-265 -13255 13256 0
-13256 13310 0
-266 -13256 13257 0
-13257 13311 0
-267 -13257 13258 0
-13258 13312 0
-268 -13258 13259 0
-13259 13313 0
-269 -13259 13260 0
-13260 13314 0
-270 -13260 13261 0
-13261 13315 0
-271 -13261 13262 0
-13262 13316 0
-272 -13262 13263 0
-13263 13317 0
-273 -13263 13264 0
-13264 13318 0
-274 -13264 13265 0
-13265 13319 0
-275 -13265 13266 0
-13266 13320 0
-276 -13266 13267 0
-13267 13321 0
-277 -13267 13268 0
-13268 13322 0
-278 -13268 13269 0
-13269 13323 0
-279 -13269 13270 0
-13270 13324 0
-280 -13270 13271 0
-13271 13325 0
-281 -13271 13272 0
-13272 13326 0
-282 -13272 13273 0
-13273 13327 0
-283 -13273 13274 0
-13274 13328 0
-284 -13274 13275 0
-13275 13329 0
-285 -13275 13276 0
-13276 13330 0
-286 -13276 13277 0
-13277 13331 0
-287 -13277 13278 0
-13278 13332 0
-288 -13278 13279 0
-13279 13333 0
-289 -13279 13280 0
-13280 13334 0
-290 -13280 13281 0
-13281 13335 0
-291 -13281 13282 0
-13282 13336 0
-292 -13282 13283 0
-13283 13337 0
-293 -13283 0
-240 13284 0
-13284 13338 0
-241 -13284 13285 0
-13285 13339 0
-242 -13285 13286 0
-13286 13340 0
-243 -13286 13287 0
-13287 13341 0
-244 -13287 13288 0
-13288 13342 0
-245 -13288 13289 0
-13289 13343 0
-246 -13289 13290 0
-13290 13344 0
-247 -13290 13291 0
-13291 13345 0
-248 -13291 13292 0
-13292 13346 0
-249 -13292 13293 0
-13293 13347 0
-250 -13293 13294 0
-13294 13348 0
-251 -13294 13295 0
-13295 13349 0
-252 -13295 13296 0
-13296 13350 0
-253 -13296 13297 0
-13297 13351 0
-254 -13297 13298 0
-13298 13352 0
-255 -13298 13299 0
-13299 13353 0
-256 -13299 13300 0
-13300 13354 0
-257 -13300 13301 0
-13301 13355 0
-258 -13301 13302 0
-13302 13356 0
-259 -13302 13303 0
-13303 13357 0
-260 -13303 13304 0
-13304 13358 0
-261 -13304 13305 0
-13305 13359 0
-262 -13305 13306 0
-13306 13360 0
-263 -13306 13307 0
-13307 13361 0
-264 -13307 13308 0
-13308 13362 0
-265 -13308 13309 0
-13309 13363 0
-266 -13309 13310 0
-13310 13364 0
-267 -13310 13311 0
-13311 13365 0
-268 -13311 13312 0
-13312 13366 0
-269 -13312 13313 0
-13313 13367 0
-270 -13313 13314 0
-13314 13368 0
-271 -13314 13315 0
-13315 13369 0
-272 -13315 13316 0
-13316 13370 0
-273 -13316 13317 0
-13317 13371 0
-274 -13317 13318 0
-13318 13372 0
-275 -13318 13319 0
-13319 13373 0
-276 -13319 13320 0
-13320 13374 0
-277 -13320 13321 0
-13321 13375 0
-278 -13321 13322 0
-13322 13376 0
-279 -13322 13323 0
-13323 13377 0
-280 -13323 13324 0
-13324 13378 0
-281 -13324 13325 0
-13325 13379 0
-282 -13325 13326 0
-13326 13380 0
-283 -13326 13327 0
-13327 13381 0
-284 -13327 13328 0
-13328 13382 0
-285 -13328 13329 0
-13329 13383 0
-286 -13329 13330 0
-13330 13384 0
-287 -13330 13331 0
-13331 13385 0
-288 -13331 13332 0
-13332 13386 0
-289 -13332 13333 0
-13333 13387 0
-290 -13333 13334 0
-13334 13388 0
-291 -13334 13335 0
-13335 13389 0
-292 -13335 13336 0
-13336 13390 0
-293 -13336 13337 0
-13337 13391 0
-294 -13337 0
-241 13338 0
-13338 13392 0
-242 -13338 13339 0
-13339 13393 0
-243 -13339 13340 0
-13340 13394 0
-244 -13340 13341 0
-13341 13395 0
-245 -13341 13342 0
-13342 13396 0
-246 -13342 13343 0
-13343 13397 0
-247 -13343 13344 0
-13344 13398 0
-248 -13344 13345 0
-13345 13399 0
-249 -13345 13346 0
-13346 13400 0
-250 -13346 13347 0
-13347 13401 0
-251 -13347 13348 0
-13348 13402 0
-252 -13348 13349 0
-13349 13403 0
-253 -13349 13350 0
-13350 13404 0
-254 -13350 13351 0
-13351 13405 0
-255 -13351 13352 0
-13352 13406 0
-256 -13352 13353 0
-13353 13407 0
-257 -13353 13354 0
-13354 13408 0
-258 -13354 13355 0
-13355 13409 0
-259 -13355 13356 0
-13356 13410 0
-260 -13356 13357 0
-13357 13411 0
-261 -13357 13358 0
-13358 13412 0
-262 -13358 13359 0
-13359 13413 0
-263 -13359 13360 0
-13360 13414 0
-264 -13360 13361 0
-13361 13415 0
-265 -13361 13362 0
-13362 13416 0
-266 -13362 13363 0
-13363 13417 0
-267 -13363 13364 0
-13364 13418 0
-268 -13364 13365 0
-13365 13419 0
-269 -13365 13366 0
-13366 13420 0
-270 -13366 13367 0
-13367 13421 0
-271 -13367 13368 0
-13368 13422 0
-272 -13368 13369 0
-13369 13423 0
-273 -13369 13370 0
-13370 13424 0
-274 -13370 13371 0
-13371 13425 0
-275 -13371 13372 0
-13372 13426 0
-276 -13372 13373 0
-13373 13427 0
-277 -13373 13374 0
-13374 13428 0
-278 -13374 13375 0
-13375 13429 0
-279 -13375 13376 0
-13376 13430 0
-280 -13376 13377 0
-13377 13431 0
-281 -13377 13378 0
-13378 13432 0
-282 -13378 13379 0
-13379 13433 0
-283 -13379 13380 0
-13380 13434 0
-284 -13380 13381 0
-13381 13435 0
-285 -13381 13382 0
-13382 13436 0
-286 -13382 13383 0
-13383 13437 0
-287 -13383 13384 0
-13384 13438 0
-288 -13384 13385 0
-13385 13439 0
-289 -13385 13386 0
-13386 13440 0
-290 -13386 13387 0
-13387 13441 0
-291 -13387 13388 0
-13388 13442 0
-292 -13388 13389 0
-13389 13443 0
-293 -13389 13390 0
-13390 13444 0
-294 -13390 13391 0
-13391 13445 0
-295 -13391 0
-242 13392 0
-13392 13446 0
-243 -13392 13393 0
-13393 13447 0
-244 -13393 13394 0
-13394 13448 0
-245 -13394 13395 0
-13395 13449 0
-246 -13395 13396 0
-13396 13450 0
-247 -13396 13397 0
-13397 13451 0
-248 -13397 13398 0
-13398 13452 0
-249 -13398 13399 0
-13399 13453 0
-250 -13399 13400 0
-13400 13454 0
-251 -13400 13401 0
-13401 13455 0
-252 -13401 13402 0
-13402 13456 0
-253 -13402 13403 0
-13403 13457 0
-254 -13403 13404 0
-13404 13458 0
-255 -13404 13405 0
-13405 13459 0
-256 -13405 13406 0
-13406 13460 0
-257 -13406 13407 0
-13407 13461 0
-258 -13407 13408 0
-13408 13462 0
-259 -13408 13409 0
-13409 13463 0
-260 -13409 13410 0
-13410 13464 0
-261 -13410 13411 0
-13411 13465 0
-262 -13411 13412 0
-13412 13466 0
-263 -13412 13413 0
-13413 13467 0
-264 -13413 13414 0
-13414 13468 0
-265 -13414 13415 0
-13415 13469 0
-266 -13415 13416 0
-13416 13470 0
-267 -13416 13417 0
-13417 13471 0
-268 -13417 13418 0
-13418 13472 0
-269 -13418 13419 0
-13419 13473 0
-270 -13419 13420 0
-13420 13474 0
-271 -13420 13421 0
-13421 13475 0
-272 -13421 13422 0
-13422 13476 0
-273 -13422 13423 0
-13423 13477 0
-274 -13423 13424 0
-13424 13478 0
-275 -13424 13425 0
-13425 13479 0
-276 -13425 13426 0
-13426 13480 0
-277 -13426 13427 0
-13427 13481 0
-278 -13427 13428 0
-13428 13482 0
-279 -13428 13429 0
-13429 13483 0
-280 -13429 13430 0
-13430 13484 0
-281 -13430 13431 0
-13431 13485 0
-282 -13431 13432 0
-13432 13486 0
-283 -13432 13433 0
-13433 13487 0
-284 -13433 13434 0
-13434 13488 0
-285 -13434 13435 0
-13435 13489 0
-286 -13435 13436 0
-13436 13490 0
-287 -13436 13437 0
-13437 13491 0
-288 -13437 13438 0
-13438 13492 0
-289 -13438 13439 0
-13439 13493 0
-290 -13439 13440 0
-13440 13494 0
-291 -13440 13441 0
-13441 13495 0
-292 -13441 13442 0
-13442 13496 0
-293 -13442 13443 0
-13443 13497 0
-294 -13443 13444 0
-13444 13498 0
-295 -13444 13445 0
-13445 13499 0
-296 -13445 0
-243 13446 0
-13446 13500 0
-244 -13446 13447 0
-13447 13501 0
-245 -13447 13448 0
-13448 13502 0
-246 -13448 13449 0
-13449 13503 0
-247 -13449 13450 0
-13450 13504 0
-248 -13450 13451 0
-13451 13505 0
-249 -13451 13452 0
-13452 13506 0
-250 -13452 13453 0
-13453 13507 0
-251 -13453 13454 0
-13454 13508 0
-252 -13454 13455 0
-13455 13509 0
-253 -13455 13456 0
-13456 13510 0
-254 -13456 13457 0
-13457 13511 0
-255 -13457 13458 0
-13458 13512 0
-256 -13458 13459 0
-13459 13513 0
-257 -13459 13460 0
-13460 13514 0
-258 -13460 13461 0
-13461 13515 0
-259 -13461 13462 0
-13462 13516 0
-260 -13462 13463 0
-13463 13517 0
-261 -13463 13464 0
-13464 13518 0
-262 -13464 13465 0
-13465 13519 0
-263 -13465 13466 0
-13466 13520 0
-264 -13466 13467 0
-13467 13521 0
-265 -13467 13468 0
-13468 13522 0
-266 -13468 13469 0
-13469 13523 0
-267 -13469 13470 0
-13470 13524 0
-268 -13470 13471 0
-13471 13525 0
-269 -13471 13472 0
-13472 13526 0
-270 -13472 13473 0
-13473 13527 0
-271 -13473 13474 0
-13474 13528 0
-272 -13474 13475 0
-13475 13529 0
-273 -13475 13476 0
-13476 13530 0
-274 -13476 13477 0
-13477 13531 0
-275 -13477 13478 0
-13478 13532 0
-276 -13478 13479 0
-13479 13533 0
-277 -13479 13480 0
-13480 13534 0
-278 -13480 13481 0
-13481 13535 0
-279 -13481 13482 0
-13482 13536 0
-280 -13482 13483 0
-13483 13537 0
-281 -13483 13484 0
-13484 13538 0
-282 -13484 13485 0
-13485 13539 0
-283 -13485 13486 0
-13486 13540 0
-284 -13486 13487 0
-13487 13541 0
-285 -13487 13488 0
-13488 13542 0
-286 -13488 13489 0
-13489 13543 0
-287 -13489 13490 0
-13490 13544 0
-288 -13490 13491 0
-13491 13545 0
-289 -13491 13492 0
-13492 13546 0
-290 -13492 13493 0
-13493 13547 0
-291 -13493 13494 0
-13494 13548 0
-292 -13494 13495 0
-13495 13549 0
-293 -13495 13496 0
-13496 13550 0
-294 -13496 13497 0
-13497 13551 0
-295 -13497 13498 0
-13498 13552 0
-296 -13498 13499 0
-13499 13553 0
-297 -13499 0
-244 13500 0
-13500 13554 0
-245 -13500 13501 0
-13501 13555 0
-246 -13501 13502 0
-13502 13556 0
-247 -13502 13503 0
-13503 13557 0
-248 -13503 13504 0
-13504 13558 0
-249 -13504 13505 0
-13505 13559 0
-250 -13505 13506 0
-13506 13560 0
-251 -13506 13507 0
-13507 13561 0
-252 -13507 13508 0
-13508 13562 0
-253 -13508 13509 0
-13509 13563 0
-254 -13509 13510 0
-13510 13564 0
-255 -13510 13511 0
-13511 13565 0
-256 -13511 13512 0
-13512 13566 0
-257 -13512 13513 0
-13513 13567 0
-258 -13513 13514 0
-13514 13568 0
-259 -13514 13515 0
-13515 13569 0
-260 -13515 13516 0
-13516 13570 0
-261 -13516 13517 0
-13517 13571 0
-262 -13517 13518 0
-13518 13572 0
-263 -13518 13519 0
-13519 13573 0
-264 -13519 13520 0
-13520 13574 0
-265 -13520 13521 0
-13521 13575 0
-266 -13521 13522 0
-13522 13576 0
-267 -13522 13523 0
-13523 13577 0
-268 -13523 13524 0
-13524 13578 0
-269 -13524 13525 0
-13525 13579 0
-270 -13525 13526 0
-13526 13580 0
-271 -13526 13527 0
-13527 13581 0
-272 -13527 13528 0
-13528 13582 0
-273 -13528 13529 0
-13529 13583 0
-274 -13529 13530 0
-13530 13584 0
-275 -13530 13531 0
-13531 13585 0
-276 -13531 13532 0
-13532 13586 0
-277 -13532 13533 0
-13533 13587 0
-278 -13533 13534 0
-13534 13588 0
-279 -13534 13535 0
-13535 13589 0
-280 -13535 13536 0
-13536 13590 0
-281 -13536 13537 0
-13537 13591 0
-282 -13537 13538 0
-13538 13592 0
-283 -13538 13539 0
-13539 13593 0
-284 -13539 13540 0
-13540 13594 0
-285 -13540 13541 0
-13541 13595 0
-286 -13541 13542 0
-13542 13596 0
-287 -13542 13543 0
-13543 13597 0
-288 -13543 13544 0
-13544 13598 0
-289 -13544 13545 0
-13545 13599 0
-290 -13545 13546 0
-13546 13600 0
-291 -13546 13547 0
-13547 13601 0
-292 -13547 13548 0
-13548 13602 0
-293 -13548 13549 0
-13549 13603 0
-294 -13549 13550 0
-13550 13604 0
-295 -13550 13551 0
-13551 13605 0
-296 -13551 13552 0
-13552 13606 0
-297 -13552 13553 0
-13553 13607 0
-298 -13553 0
-245 13554 0
-13554 13608 0
-246 -13554 13555 0
-13555 13609 0
-247 -13555 13556 0
-13556 13610 0
-248 -13556 13557 0
-13557 13611 0
-249 -13557 13558 0
-13558 13612 0
-250 -13558 13559 0
-13559 13613 0
-251 -13559 13560 0
-13560 13614 0
-252 -13560 13561 0
-13561 13615 0
-253 -13561 13562 0
-13562 13616 0
-254 -13562 13563 0
-13563 13617 0
-255 -13563 13564 0
-13564 13618 0
-256 -13564 13565 0
-13565 13619 0
-257 -13565 13566 0
-13566 13620 0
-258 -13566 13567 0
-13567 13621 0
-259 -13567 13568 0
-13568 13622 0
-260 -13568 13569 0
-13569 13623 0
-261 -13569 13570 0
-13570 13624 0
-262 -13570 13571 0
-13571 13625 0
-263 -13571 13572 0
-13572 13626 0
-264 -13572 13573 0
-13573 13627 0
-265 -13573 13574 0
-13574 13628 0
-266 -13574 13575 0
-13575 13629 0
-267 -13575 13576 0
-13576 13630 0
-268 -13576 13577 0
-13577 13631 0
-269 -13577 13578 0
-13578 13632 0
-270 -13578 13579 0
-13579 13633 0
-271 -13579 13580 0
-13580 13634 0
-272 -13580 13581 0
-13581 13635 0
-273 -13581 13582 0
-13582 13636 0
-274 -13582 13583 0
-13583 13637 0
-275 -13583 13584 0
-13584 13638 0
-276 -13584 13585 0
-13585 13639 0
-277 -13585 13586 0
-13586 13640 0
-278 -13586 13587 0
-13587 13641 0
-279 -13587 13588 0
-13588 13642 0
-280 -13588 13589 0
-13589 13643 0
-281 -13589 13590 0
-13590 13644 0
-282 -13590 13591 0
-13591 13645 0
-283 -13591 13592 0
-13592 13646 0
-284 -13592 13593 0
-13593 13647 0
-285 -13593 13594 0
-13594 13648 0
-286 -13594 13595 0
-13595 13649 0
-287 -13595 13596 0
-13596 13650 0
-288 -13596 13597 0
-13597 13651 0
-289 -13597 13598 0
-13598 13652 0
-290 -13598 13599 0
-13599 13653 0
-291 -13599 13600 0
-13600 13654 0
-292 -13600 13601 0
-13601 13655 0
-293 -13601 13602 0
-13602 13656 0
-294 -13602 13603 0
-13603 13657 0
-295 -13603 13604 0
-13604 13658 0
-296 -13604 13605 0
-13605 13659 0
-297 -13605 13606 0
-13606 13660 0
-298 -13606 13607 0
-13607 13661 0
-299 -13607 0
-246 13608 0
-13608 13662 0
-247 -13608 13609 0
-13609 13663 0
-248 -13609 13610 0
-13610 13664 0
-249 -13610 13611 0
-13611 13665 0
-250 -13611 13612 0
-13612 13666 0
-251 -13612 13613 0
-13613 13667 0
-252 -13613 13614 0
-13614 13668 0
-253 -13614 13615 0
-13615 13669 0
-254 -13615 13616 0
-13616 13670 0
-255 -13616 13617 0
-13617 13671 0
-256 -13617 13618 0
-13618 13672 0
-257 -13618 13619 0
-13619 13673 0
-258 -13619 13620 0
-13620 13674 0
-259 -13620 13621 0
-13621 13675 0
-260 -13621 13622 0
-13622 13676 0
-261 -13622 13623 0
-13623 13677 0
-262 -13623 13624 0
-13624 13678 0
-263 -13624 13625 0
-13625 13679 0
-264 -13625 13626 0
-13626 13680 0
-265 -13626 13627 0
-13627 13681 0
-266 -13627 13628 0
-13628 13682 0
-267 -13628 13629 0
-13629 13683 0
-268 -13629 13630 0
-13630 13684 0
-269 -13630 13631 0
-13631 13685 0
-270 -13631 13632 0
-13632 13686 0
-271 -13632 13633 0
-13633 13687 0
-272 -13633 13634 0
-13634 13688 0
-273 -13634 13635 0
-13635 13689 0
-274 -13635 13636 0
-13636 13690 0
-275 -13636 13637 0
-13637 13691 0
-276 -13637 13638 0
-13638 13692 0
-277 -13638 13639 0
-13639 13693 0
-278 -13639 13640 0
-13640 13694 0
-279 -13640 13641 0
-13641 13695 0
-280 -13641 13642 0
-13642 13696 0
-281 -13642 13643 0
-13643 13697 0
-282 -13643 13644 0
-13644 13698 0
-283 -13644 13645 0
-13645 13699 0
-284 -13645 13646 0
-13646 13700 0
-285 -13646 13647 0
-13647 13701 0
-286 -13647 13648 0
-13648 13702 0
-287 -13648 13649 0
-13649 13703 0
-288 -13649 13650 0
-13650 13704 0
-289 -13650 13651 0
-13651 13705 0
-290 -13651 13652 0
-13652 13706 0
-291 -13652 13653 0
-13653 13707 0
-292 -13653 13654 0
-13654 13708 0
-293 -13654 13655 0
-13655 13709 0
-294 -13655 13656 0
-13656 13710 0
-295 -13656 13657 0
-13657 13711 0
-296 -13657 13658 0
-13658 13712 0
-297 -13658 13659 0
-13659 13713 0
-298 -13659 13660 0
-13660 13714 0
-299 -13660 13661 0
-13661 13715 0
-300 -13661 0
-247 13662 0
-13662 13716 0
-248 -13662 13663 0
-13663 13717 0
-249 -13663 13664 0
-13664 13718 0
-250 -13664 13665 0
-13665 13719 0
-251 -13665 13666 0
-13666 13720 0
-252 -13666 13667 0
-13667 13721 0
-253 -13667 13668 0
-13668 13722 0
-254 -13668 13669 0
-13669 13723 0
-255 -13669 13670 0
-13670 13724 0
-256 -13670 13671 0
-13671 13725 0
-257 -13671 13672 0
-13672 13726 0
-258 -13672 13673 0
-13673 13727 0
-259 -13673 13674 0
-13674 13728 0
-260 -13674 13675 0
-13675 13729 0
-261 -13675 13676 0
-13676 13730 0
-262 -13676 13677 0
-13677 13731 0
-263 -13677 13678 0
-13678 13732 0
-264 -13678 13679 0
-13679 13733 0
-265 -13679 13680 0
-13680 13734 0
-266 -13680 13681 0
-13681 13735 0
-267 -13681 13682 0
-13682 13736 0
-268 -13682 13683 0
-13683 13737 0
-269 -13683 13684 0
-13684 13738 0
-270 -13684 13685 0
-13685 13739 0
-271 -13685 13686 0
-13686 13740 0
-272 -13686 13687 0
-13687 13741 0
-273 -13687 13688 0
-13688 13742 0
-274 -13688 13689 0
-13689 13743 0
-275 -13689 13690 0
-13690 13744 0
-276 -13690 13691 0
-13691 13745 0
-277 -13691 13692 0
-13692 13746 0
-278 -13692 13693 0
-13693 13747 0
-279 -13693 13694 0
-13694 13748 0
-280 -13694 13695 0
-13695 13749 0
-281 -13695 13696 0
-13696 13750 0
-282 -13696 13697 0
-13697 13751 0
-283 -13697 13698 0
-13698 13752 0
-284 -13698 13699 0
-13699 13753 0
-285 -13699 13700 0
-13700 13754 0
-286 -13700 13701 0
-13701 13755 0
-287 -13701 13702 0
-13702 13756 0
-288 -13702 13703 0
-13703 13757 0
-289 -13703 13704 0
-13704 13758 0
-290 -13704 13705 0
-13705 13759 0
-291 -13705 13706 0
-13706 13760 0
-292 -13706 13707 0
-13707 13761 0
-293 -13707 13708 0
-13708 13762 0
-294 -13708 13709 0
-13709 13763 0
-295 -13709 13710 0
-13710 13764 0
-296 -13710 13711 0
-13711 13765 0
-297 -13711 13712 0
-13712 13766 0
-298 -13712 13713 0
-13713 13767 0
-299 -13713 13714 0
-13714 13768 0
-300 -13714 13715 0
-13715 13769 0
-301 -13715 0
-248 13716 0
-13716 13770 0
-249 -13716 13717 0
-13717 13771 0
-250 -13717 13718 0
-13718 13772 0
-251 -13718 13719 0
-13719 13773 0
-252 -13719 13720 0
-13720 13774 0
-253 -13720 13721 0
-13721 13775 0
-254 -13721 13722 0
-13722 13776 0
-255 -13722 13723 0
-13723 13777 0
-256 -13723 13724 0
-13724 13778 0
-257 -13724 13725 0
-13725 13779 0
-258 -13725 13726 0
-13726 13780 0
-259 -13726 13727 0
-13727 13781 0
-260 -13727 13728 0
-13728 13782 0
-261 -13728 13729 0
-13729 13783 0
-262 -13729 13730 0
-13730 13784 0
-263 -13730 13731 0
-13731 13785 0
-264 -13731 13732 0
-13732 13786 0
-265 -13732 13733 0
-13733 13787 0
-266 -13733 13734 0
-13734 13788 0
-267 -13734 13735 0
-13735 13789 0
-268 -13735 13736 0
-13736 13790 0
-269 -13736 13737 0
-13737 13791 0
-270 -13737 13738 0
-13738 13792 0
-271 -13738 13739 0
-13739 13793 0
-272 -13739 13740 0
-13740 13794 0
-273 -13740 13741 0
-13741 13795 0
-274 -13741 13742 0
-13742 13796 0
-275 -13742 13743 0
-13743 13797 0
-276 -13743 13744 0
-13744 13798 0
-277 -13744 13745 0
-13745 13799 0
-278 -13745 13746 0
-13746 13800 0
-279 -13746 13747 0
-13747 13801 0
-280 -13747 13748 0
-13748 13802 0
-281 -13748 13749 0
-13749 13803 0
-282 -13749 13750 0
-13750 13804 0
-283 -13750 13751 0
-13751 13805 0
-284 -13751 13752 0
-13752 13806 0
-285 -13752 13753 0
-13753 13807 0
-286 -13753 13754 0
-13754 13808 0
-287 -13754 13755 0
-13755 13809 0
-288 -13755 13756 0
-13756 13810 0
-289 -13756 13757 0
-13757 13811 0
-290 -13757 13758 0
-13758 13812 0
-291 -13758 13759 0
-13759 13813 0
-292 -13759 13760 0
-13760 13814 0
-293 -13760 13761 0
-13761 13815 0
-294 -13761 13762 0
-13762 13816 0
-295 -13762 13763 0
-13763 13817 0
-296 -13763 13764 0
-13764 13818 0
-297 -13764 13765 0
-13765 13819 0
-298 -13765 13766 0
-13766 13820 0
-299 -13766 13767 0
-13767 13821 0
-300 -13767 13768 0
-13768 13822 0
-301 -13768 13769 0
-13769 13823 0
-302 -13769 0
-249 13770 0
-13770 13824 0
-250 -13770 13771 0
-13771 13825 0
-251 -13771 13772 0
-13772 13826 0
-252 -13772 13773 0
-13773 13827 0
-253 -13773 13774 0
-13774 13828 0
-254 -13774 13775 0
-13775 13829 0
-255 -13775 13776 0
-13776 13830 0
-256 -13776 13777 0
-13777 13831 0
-257 -13777 13778 0
-13778 13832 0
-258 -13778 13779 0
-13779 13833 0
-259 -13779 13780 0
-13780 13834 0
-260 -13780 13781 0
-13781 13835 0
-261 -13781 13782 0
-13782 13836 0
-262 -13782 13783 0
-13783 13837 0
-263 -13783 13784 0
-13784 13838 0
-264 -13784 13785 0
-13785 13839 0
-265 -13785 13786 0
-13786 13840 0
-266 -13786 13787 0
-13787 13841 0
-267 -13787 13788 0
-13788 13842 0
-268 -13788 13789 0
-13789 13843 0
-269 -13789 13790 0
-13790 13844 0
-270 -13790 13791 0
-13791 13845 0
-271 -13791 13792 0
-13792 13846 0
-272 -13792 13793 0
-13793 13847 0
-273 -13793 13794 0
-13794 13848 0
-274 -13794 13795 0
-13795 13849 0
-275 -13795 13796 0
-13796 13850 0
-276 -13796 13797 0
-13797 13851 0
-277 -13797 13798 0
-13798 13852 0
-278 -13798 13799 0
-13799 13853 0
-279 -13799 13800 0
-13800 13854 0
-280 -13800 13801 0
-13801 13855 0
-281 -13801 13802 0
-13802 13856 0
-282 -13802 13803 0
-13803 13857 0
-283 -13803 13804 0
-13804 13858 0
-284 -13804 13805 0
-13805 13859 0
-285 -13805 13806 0
-13806 13860 0
-286 -13806 13807 0
-13807 13861 0
-287 -13807 13808 0
-13808 13862 0
-288 -13808 13809 0
-13809 13863 0
-289 -13809 13810 0
-13810 13864 0
-290 -13810 13811 0
-13811 13865 0
-291 -13811 13812 0
-13812 13866 0
-292 -13812 13813 0
-13813 13867 0
-293 -13813 13814 0
-13814 13868 0
-294 -13814 13815 0
-13815 13869 0
-295 -13815 13816 0
-13816 13870 0
-296 -13816 13817 0
-13817 13871 0
-297 -13817 13818 0
-13818 13872 0
-298 -13818 13819 0
-13819 13873 0
-299 -13819 13820 0
-13820 13874 0
-300 -13820 13821 0
-13821 13875 0
-301 -13821 13822 0
-13822 13876 0
-302 -13822 13823 0
-13823 13877 0
-303 -13823 0
-250 13824 0
-13824 13878 0
-251 -13824 13825 0
-13825 13879 0
-252 -13825 13826 0
-13826 13880 0
-253 -13826 13827 0
-13827 13881 0
-254 -13827 13828 0
-13828 13882 0
-255 -13828 13829 0
-13829 13883 0
-256 -13829 13830 0
-13830 13884 0
-257 -13830 13831 0
-13831 13885 0
-258 -13831 13832 0
-13832 13886 0
-259 -13832 13833 0
-13833 13887 0
-260 -13833 13834 0
-13834 13888 0
-261 -13834 13835 0
-13835 13889 0
-262 -13835 13836 0
-13836 13890 0
-263 -13836 13837 0
-13837 13891 0
-264 -13837 13838 0
-13838 13892 0
-265 -13838 13839 0
-13839 13893 0
-266 -13839 13840 0
-13840 13894 0
-267 -13840 13841 0
-13841 13895 0
-268 -13841 13842 0
-13842 13896 0
-269 -13842 13843 0
-13843 13897 0
-270 -13843 13844 0
-13844 13898 0
-271 -13844 13845 0
-13845 13899 0
-272 -13845 13846 0
-13846 13900 0
-273 -13846 13847 0
-13847 13901 0
-274 -13847 13848 0
-13848 13902 0
-275 -13848 13849 0
-13849 13903 0
-276 -13849 13850 0
-13850 13904 0
-277 -13850 13851 0
-13851 13905 0
-278 -13851 13852 0
-13852 13906 0
-279 -13852 13853 0
-13853 13907 0
-280 -13853 13854 0
-13854 13908 0
-281 -13854 13855 0
-13855 13909 0
-282 -13855 13856 0
-13856 13910 0
-283 -13856 13857 0
-13857 13911 0
-284 -13857 13858 0
-13858 13912 0
-285 -13858 13859 0
-13859 13913 0
-286 -13859 13860 0
-13860 13914 0
-287 -13860 13861 0
-13861 13915 0
-288 -13861 13862 0
-13862 13916 0
-289 -13862 13863 0
-13863 13917 0
-290 -13863 13864 0
-13864 13918 0
-291 -13864 13865 0
-13865 13919 0
-292 -13865 13866 0
-13866 13920 0
-293 -13866 13867 0
-13867 13921 0
-294 -13867 13868 0
-13868 13922 0
-295 -13868 13869 0
-13869 13923 0
-296 -13869 13870 0
-13870 13924 0
-297 -13870 13871 0
-13871 13925 0
-298 -13871 13872 0
-13872 13926 0
-299 -13872 13873 0
-13873 13927 0
-300 -13873 13874 0
-13874 13928 0
-301 -13874 13875 0
-13875 13929 0
-302 -13875 13876 0
-13876 13930 0
-303 -13876 13877 0
-13877 13931 0
-304 -13877 0
-251 13878 0
-13878 13932 0
-252 -13878 13879 0
-13879 13933 0
-253 -13879 13880 0
-13880 13934 0
-254 -13880 13881 0
-13881 13935 0
-255 -13881 13882 0
-13882 13936 0
-256 -13882 13883 0
-13883 13937 0
-257 -13883 13884 0
-13884 13938 0
-258 -13884 13885 0
-13885 13939 0
-259 -13885 13886 0
-13886 13940 0
-260 -13886 13887 0
-13887 13941 0
-261 -13887 13888 0
-13888 13942 0
-262 -13888 13889 0
-13889 13943 0
-263 -13889 13890 0
-13890 13944 0
-264 -13890 13891 0
-13891 13945 0
-265 -13891 13892 0
-13892 13946 0
-266 -13892 13893 0
-13893 13947 0
-267 -13893 13894 0
-13894 13948 0
-268 -13894 13895 0
-13895 13949 0
-269 -13895 13896 0
-13896 13950 0
-270 -13896 13897 0
-13897 13951 0
-271 -13897 13898 0
-13898 13952 0
-272 -13898 13899 0
-13899 13953 0
-273 -13899 13900 0
-13900 13954 0
-274 -13900 13901 0
-13901 13955 0
-275 -13901 13902 0
-13902 13956 0
-276 -13902 13903 0
-13903 13957 0
-277 -13903 13904 0
-13904 13958 0
-278 -13904 13905 0
-13905 13959 0
-279 -13905 13906 0
-13906 13960 0
-280 -13906 13907 0
-13907 13961 0
-281 -13907 13908 0
-13908 13962 0
-282 -13908 13909 0
-13909 13963 0
-283 -13909 13910 0
-13910 13964 0
-284 -13910 13911 0
-13911 13965 0
-285 -13911 13912 0
-13912 13966 0
-286 -13912 13913 0
-13913 13967 0
-287 -13913 13914 0
-13914 13968 0
-288 -13914 13915 0
-13915 13969 0
-289 -13915 13916 0
-13916 13970 0
-290 -13916 13917 0
-13917 13971 0
-291 -13917 13918 0
-13918 13972 0
-292 -13918 13919 0
-13919 13973 0
-293 -13919 13920 0
-13920 13974 0
-294 -13920 13921 0
-13921 13975 0
-295 -13921 13922 0
-13922 13976 0
-296 -13922 13923 0
-13923 13977 0
-297 -13923 13924 0
-13924 13978 0
-298 -13924 13925 0
-13925 13979 0
-299 -13925 13926 0
-13926 13980 0
-300 -13926 13927 0
-13927 13981 0
-301 -13927 13928 0
-13928 13982 0
-302 -13928 13929 0
-13929 13983 0
-303 -13929 13930 0
-13930 13984 0
-304 -13930 13931 0
-13931 13985 0
-305 -13931 0
-252 13932 0
-13932 13986 0
-253 -13932 13933 0
-13933 13987 0
-254 -13933 13934 0
-13934 13988 0
-255 -13934 13935 0
-13935 13989 0
-256 -13935 13936 0
-13936 13990 0
-257 -13936 13937 0
-13937 13991 0
-258 -13937 13938 0
-13938 13992 0
-259 -13938 13939 0
-13939 13993 0
-260 -13939 13940 0
-13940 13994 0
-261 -13940 13941 0
-13941 13995 0
-262 -13941 13942 0
-13942 13996 0
-263 -13942 13943 0
-13943 13997 0
-264 -13943 13944 0
-13944 13998 0
-265 -13944 13945 0
-13945 13999 0
-266 -13945 13946 0
-13946 14000 0
-267 -13946 13947 0
-13947 14001 0
-268 -13947 13948 0
-13948 14002 0
-269 -13948 13949 0
-13949 14003 0
-270 -13949 13950 0
-13950 14004 0
-271 -13950 13951 0
-13951 14005 0
-272 -13951 13952 0
-13952 14006 0
-273 -13952 13953 0
-13953 14007 0
-274 -13953 13954 0
-13954 14008 0
-275 -13954 13955 0
-13955 14009 0
-276 -13955 13956 0
-13956 14010 0
-277 -13956 13957 0
-13957 14011 0
-278 -13957 13958 0
-13958 14012 0
-279 -13958 13959 0
-13959 14013 0
-280 -13959 13960 0
-13960 14014 0
-281 -13960 13961 0
-13961 14015 0
-282 -13961 13962 0
-13962 14016 0
-283 -13962 13963 0
-13963 14017 0
-284 -13963 13964 0
-13964 14018 0
-285 -13964 13965 0
-13965 14019 0
-286 -13965 13966 0
-13966 14020 0
-287 -13966 13967 0
-13967 14021 0
-288 -13967 13968 0
-13968 14022 0
-289 -13968 13969 0
-13969 14023 0
-290 -13969 13970 0
-13970 14024 0
-291 -13970 13971 0
-13971 14025 0
-292 -13971 13972 0
-13972 14026 0
-293 -13972 13973 0
-13973 14027 0
-294 -13973 13974 0
-13974 14028 0
-295 -13974 13975 0
-13975 14029 0
-296 -13975 13976 0
-13976 14030 0
-297 -13976 13977 0
-13977 14031 0
-298 -13977 13978 0
-13978 14032 0
-299 -13978 13979 0
-13979 14033 0
-300 -13979 13980 0
-13980 14034 0
-301 -13980 13981 0
-13981 14035 0
-302 -13981 13982 0
-13982 14036 0
-303 -13982 13983 0
-13983 14037 0
-304 -13983 13984 0
-13984 14038 0
-305 -13984 13985 0
-13985 14039 0
-306 -13985 0
-253 13986 0
-13986 14040 0
-254 -13986 13987 0
-13987 14041 0
-255 -13987 13988 0
-13988 14042 0
-256 -13988 13989 0
-13989 14043 0
-257 -13989 13990 0
-13990 14044 0
-258 -13990 13991 0
-13991 14045 0
-259 -13991 13992 0
-13992 14046 0
-260 -13992 13993 0
-13993 14047 0
-261 -13993 13994 0
-13994 14048 0
-262 -13994 13995 0
-13995 14049 0
-263 -13995 13996 0
-13996 14050 0
-264 -13996 13997 0
-13997 14051 0
-265 -13997 13998 0
-13998 14052 0
-266 -13998 13999 0
-13999 14053 0
-267 -13999 14000 0
-14000 14054 0
-268 -14000 14001 0
-14001 14055 0
-269 -14001 14002 0
-14002 14056 0
-270 -14002 14003 0
-14003 14057 0
-271 -14003 14004 0
-14004 14058 0
-272 -14004 14005 0
-14005 14059 0
-273 -14005 14006 0
-14006 14060 0
-274 -14006 14007 0
-14007 14061 0
-275 -14007 14008 0
-14008 14062 0
-276 -14008 14009 0
-14009 14063 0
-277 -14009 14010 0
-14010 14064 0
-278 -14010 14011 0
-14011 14065 0
-279 -14011 14012 0
-14012 14066 0
-280 -14012 14013 0
-14013 14067 0
-281 -14013 14014 0
-14014 14068 0
-282 -14014 14015 0
-14015 14069 0
-283 -14015 14016 0
-14016 14070 0
-284 -14016 14017 0
-14017 14071 0
-285 -14017 14018 0
-14018 14072 0
-286 -14018 14019 0
-14019 14073 0
-287 -14019 14020 0
-14020 14074 0
-288 -14020 14021 0
-14021 14075 0
-289 -14021 14022 0
-14022 14076 0
-290 -14022 14023 0
-14023 14077 0
-291 -14023 14024 0
-14024 14078 0
-292 -14024 14025 0
-14025 14079 0
-293 -14025 14026 0
-14026 14080 0
-294 -14026 14027 0
-14027 14081 0
-295 -14027 14028 0
-14028 14082 0
-296 -14028 14029 0
-14029 14083 0
-297 -14029 14030 0
-14030 14084 0
-298 -14030 14031 0
-14031 14085 0
-299 -14031 14032 0
-14032 14086 0
-300 -14032 14033 0
-14033 14087 0
-301 -14033 14034 0
-14034 14088 0
-302 -14034 14035 0
-14035 14089 0
-303 -14035 14036 0
-14036 14090 0
-304 -14036 14037 0
-14037 14091 0
-305 -14037 14038 0
-14038 14092 0
-306 -14038 14039 0
-14039 14093 0
-307 -14039 0
-254 14040 0
-14040 14094 0
-255 -14040 14041 0
-14041 14095 0
-256 -14041 14042 0
-14042 14096 0
-257 -14042 14043 0
-14043 14097 0
-258 -14043 14044 0
-14044 14098 0
-259 -14044 14045 0
-14045 14099 0
-260 -14045 14046 0
-14046 14100 0
-261 -14046 14047 0
-14047 14101 0
-262 -14047 14048 0
-14048 14102 0
-263 -14048 14049 0
-14049 14103 0
-264 -14049 14050 0
-14050 14104 0
-265 -14050 14051 0
-14051 14105 0
-266 -14051 14052 0
-14052 14106 0
-267 -14052 14053 0
-14053 14107 0
-268 -14053 14054 0
-14054 14108 0
-269 -14054 14055 0
-14055 14109 0
-270 -14055 14056 0
-14056 14110 0
-271 -14056 14057 0
-14057 14111 0
-272 -14057 14058 0
-14058 14112 0
-273 -14058 14059 0
-14059 14113 0
-274 -14059 14060 0
-14060 14114 0
-275 -14060 14061 0
-14061 14115 0
-276 -14061 14062 0
-14062 14116 0
-277 -14062 14063 0
-14063 14117 0
-278 -14063 14064 0
-14064 14118 0
-279 -14064 14065 0
-14065 14119 0
-280 -14065 14066 0
-14066 14120 0
-281 -14066 14067 0
-14067 14121 0
-282 -14067 14068 0
-14068 14122 0
-283 -14068 14069 0
-14069 14123 0
-284 -14069 14070 0
-14070 14124 0
-285 -14070 14071 0
-14071 14125 0
-286 -14071 14072 0
-14072 14126 0
-287 -14072 14073 0
-14073 14127 0
-288 -14073 14074 0
-14074 14128 0
-289 -14074 14075 0
-14075 14129 0
-290 -14075 14076 0
-14076 14130 0
-291 -14076 14077 0
-14077 14131 0
-292 -14077 14078 0
-14078 14132 0
-293 -14078 14079 0
-14079 14133 0
-294 -14079 14080 0
-14080 14134 0
-295 -14080 14081 0
-14081 14135 0
-296 -14081 14082 0
-14082 14136 0
-297 -14082 14083 0
-14083 14137 0
-298 -14083 14084 0
-14084 14138 0
-299 -14084 14085 0
-14085 14139 0
-300 -14085 14086 0
-14086 14140 0
-301 -14086 14087 0
-14087 14141 0
-302 -14087 14088 0
-14088 14142 0
-303 -14088 14089 0
-14089 14143 0
-304 -14089 14090 0
-14090 14144 0
-305 -14090 14091 0
-14091 14145 0
-306 -14091 14092 0
-14092 14146 0
-307 -14092 14093 0
-14093 14147 0
-308 -14093 0
-255 14094 0
-14094 14148 0
-256 -14094 14095 0
-14095 14149 0
-257 -14095 14096 0
-14096 14150 0
-258 -14096 14097 0
-14097 14151 0
-259 -14097 14098 0
-14098 14152 0
-260 -14098 14099 0
-14099 14153 0
-261 -14099 14100 0
-14100 14154 0
-262 -14100 14101 0
-14101 14155 0
-263 -14101 14102 0
-14102 14156 0
-264 -14102 14103 0
-14103 14157 0
-265 -14103 14104 0
-14104 14158 0
-266 -14104 14105 0
-14105 14159 0
-267 -14105 14106 0
-14106 14160 0
-268 -14106 14107 0
-14107 14161 0
-269 -14107 14108 0
-14108 14162 0
-270 -14108 14109 0
-14109 14163 0
-271 -14109 14110 0
-14110 14164 0
-272 -14110 14111 0
-14111 14165 0
-273 -14111 14112 0
-14112 14166 0
-274 -14112 14113 0
-14113 14167 0
-275 -14113 14114 0
-14114 14168 0
-276 -14114 14115 0
-14115 14169 0
-277 -14115 14116 0
-14116 14170 0
-278 -14116 14117 0
-14117 14171 0
-279 -14117 14118 0
-14118 14172 0
-280 -14118 14119 0
-14119 14173 0
-281 -14119 14120 0
-14120 14174 0
-282 -14120 14121 0
-14121 14175 0
-283 -14121 14122 0
-14122 14176 0
-284 -14122 14123 0
-14123 14177 0
-285 -14123 14124 0
-14124 14178 0
-286 -14124 14125 0
-14125 14179 0
-287 -14125 14126 0
-14126 14180 0
-288 -14126 14127 0
-14127 14181 0
-289 -14127 14128 0
-14128 14182 0
-290 -14128 14129 0
-14129 14183 0
-291 -14129 14130 0
-14130 14184 0
-292 -14130 14131 0
-14131 14185 0
-293 -14131 14132 0
-14132 14186 0
-294 -14132 14133 0
-14133 14187 0
-295 -14133 14134 0
-14134 14188 0
-296 -14134 14135 0
-14135 14189 0
-297 -14135 14136 0
-14136 14190 0
-298 -14136 14137 0
-14137 14191 0
-299 -14137 14138 0
-14138 14192 0
-300 -14138 14139 0
-14139 14193 0
-301 -14139 14140 0
-14140 14194 0
-302 -14140 14141 0
-14141 14195 0
-303 -14141 14142 0
-14142 14196 0
-304 -14142 14143 0
-14143 14197 0
-305 -14143 14144 0
-14144 14198 0
-306 -14144 14145 0
-14145 14199 0
-307 -14145 14146 0
-14146 14200 0
-308 -14146 14147 0
-14147 14201 0
-309 -14147 0
-256 14148 0
-14148 14202 0
-257 -14148 14149 0
-14149 14203 0
-258 -14149 14150 0
-14150 14204 0
-259 -14150 14151 0
-14151 14205 0
-260 -14151 14152 0
-14152 14206 0
-261 -14152 14153 0
-14153 14207 0
-262 -14153 14154 0
-14154 14208 0
-263 -14154 14155 0
-14155 14209 0
-264 -14155 14156 0
-14156 14210 0
-265 -14156 14157 0
-14157 14211 0
-266 -14157 14158 0
-14158 14212 0
-267 -14158 14159 0
-14159 14213 0
-268 -14159 14160 0
-14160 14214 0
-269 -14160 14161 0
-14161 14215 0
-270 -14161 14162 0
-14162 14216 0
-271 -14162 14163 0
-14163 14217 0
-272 -14163 14164 0
-14164 14218 0
-273 -14164 14165 0
-14165 14219 0
-274 -14165 14166 0
-14166 14220 0
-275 -14166 14167 0
-14167 14221 0
-276 -14167 14168 0
-14168 14222 0
-277 -14168 14169 0
-14169 14223 0
-278 -14169 14170 0
-14170 14224 0
-279 -14170 14171 0
-14171 14225 0
-280 -14171 14172 0
-14172 14226 0
-281 -14172 14173 0
-14173 14227 0
-282 -14173 14174 0
-14174 14228 0
-283 -14174 14175 0
-14175 14229 0
-284 -14175 14176 0
-14176 14230 0
-285 -14176 14177 0
-14177 14231 0
-286 -14177 14178 0
-14178 14232 0
-287 -14178 14179 0
-14179 14233 0
-288 -14179 14180 0
-14180 14234 0
-289 -14180 14181 0
-14181 14235 0
-290 -14181 14182 0
-14182 14236 0
-291 -14182 14183 0
-14183 14237 0
-292 -14183 14184 0
-14184 14238 0
-293 -14184 14185 0
-14185 14239 0
-294 -14185 14186 0
-14186 14240 0
-295 -14186 14187 0
-14187 14241 0
-296 -14187 14188 0
-14188 14242 0
-297 -14188 14189 0
-14189 14243 0
-298 -14189 14190 0
-14190 14244 0
-299 -14190 14191 0
-14191 14245 0
-300 -14191 14192 0
-14192 14246 0
-301 -14192 14193 0
-14193 14247 0
-302 -14193 14194 0
-14194 14248 0
-303 -14194 14195 0
-14195 14249 0
-304 -14195 14196 0
-14196 14250 0
-305 -14196 14197 0
-14197 14251 0
-306 -14197 14198 0
-14198 14252 0
-307 -14198 14199 0
-14199 14253 0
-308 -14199 14200 0
-14200 14254 0
-309 -14200 14201 0
-14201 14255 0
-310 -14201 0
-257 14202 0
-14202 14256 0
-258 -14202 14203 0
-14203 14257 0
-259 -14203 14204 0
-14204 14258 0
-260 -14204 14205 0
-14205 14259 0
-261 -14205 14206 0
-14206 14260 0
-262 -14206 14207 0
-14207 14261 0
-263 -14207 14208 0
-14208 14262 0
-264 -14208 14209 0
-14209 14263 0
-265 -14209 14210 0
-14210 14264 0
-266 -14210 14211 0
-14211 14265 0
-267 -14211 14212 0
-14212 14266 0
-268 -14212 14213 0
-14213 14267 0
-269 -14213 14214 0
-14214 14268 0
-270 -14214 14215 0
-14215 14269 0
-271 -14215 14216 0
-14216 14270 0
-272 -14216 14217 0
-14217 14271 0
-273 -14217 14218 0
-14218 14272 0
-274 -14218 14219 0
-14219 14273 0
-275 -14219 14220 0
-14220 14274 0
-276 -14220 14221 0
-14221 14275 0
-277 -14221 14222 0
-14222 14276 0
-278 -14222 14223 0
-14223 14277 0
-279 -14223 14224 0
-14224 14278 0
-280 -14224 14225 0
-14225 14279 0
-281 -14225 14226 0
-14226 14280 0
-282 -14226 14227 0
-14227 14281 0
-283 -14227 14228 0
-14228 14282 0
-284 -14228 14229 0
-14229 14283 0
-285 -14229 14230 0
-14230 14284 0
-286 -14230 14231 0
-14231 14285 0
-287 -14231 14232 0
-14232 14286 0
-288 -14232 14233 0
-14233 14287 0
-289 -14233 14234 0
-14234 14288 0
-290 -14234 14235 0
-14235 14289 0
-291 -14235 14236 0
-14236 14290 0
-292 -14236 14237 0
-14237 14291 0
-293 -14237 14238 0
-14238 14292 0
-294 -14238 14239 0
-14239 14293 0
-295 -14239 14240 0
-14240 14294 0
-296 -14240 14241 0
-14241 14295 0
-297 -14241 14242 0
-14242 14296 0
-298 -14242 14243 0
-14243 14297 0
-299 -14243 14244 0
-14244 14298 0
-300 -14244 14245 0
-14245 14299 0
-301 -14245 14246 0
-14246 14300 0
-302 -14246 14247 0
-14247 14301 0
-303 -14247 14248 0
-14248 14302 0
-304 -14248 14249 0
-14249 14303 0
-305 -14249 14250 0
-14250 14304 0
-306 -14250 14251 0
-14251 14305 0
-307 -14251 14252 0
-14252 14306 0
-308 -14252 14253 0
-14253 14307 0
-309 -14253 14254 0
-14254 14308 0
-310 -14254 14255 0
-14255 14309 0
-311 -14255 0
-258 14256 0
-14256 14310 0
-259 -14256 14257 0
-14257 14311 0
-260 -14257 14258 0
-14258 14312 0
-261 -14258 14259 0
-14259 14313 0
-262 -14259 14260 0
-14260 14314 0
-263 -14260 14261 0
-14261 14315 0
-264 -14261 14262 0
-14262 14316 0
-265 -14262 14263 0
-14263 14317 0
-266 -14263 14264 0
-14264 14318 0
-267 -14264 14265 0
-14265 14319 0
-268 -14265 14266 0
-14266 14320 0
-269 -14266 14267 0
-14267 14321 0
-270 -14267 14268 0
-14268 14322 0
-271 -14268 14269 0
-14269 14323 0
-272 -14269 14270 0
-14270 14324 0
-273 -14270 14271 0
-14271 14325 0
-274 -14271 14272 0
-14272 14326 0
-275 -14272 14273 0
-14273 14327 0
-276 -14273 14274 0
-14274 14328 0
-277 -14274 14275 0
-14275 14329 0
-278 -14275 14276 0
-14276 14330 0
-279 -14276 14277 0
-14277 14331 0
-280 -14277 14278 0
-14278 14332 0
-281 -14278 14279 0
-14279 14333 0
-282 -14279 14280 0
-14280 14334 0
-283 -14280 14281 0
-14281 14335 0
-284 -14281 14282 0
-14282 14336 0
-285 -14282 14283 0
-14283 14337 0
-286 -14283 14284 0
-14284 14338 0
-287 -14284 14285 0
-14285 14339 0
-288 -14285 14286 0
-14286 14340 0
-289 -14286 14287 0
-14287 14341 0
-290 -14287 14288 0
-14288 14342 0
-291 -14288 14289 0
-14289 14343 0
-292 -14289 14290 0
-14290 14344 0
-293 -14290 14291 0
-14291 14345 0
-294 -14291 14292 0
-14292 14346 0
-295 -14292 14293 0
-14293 14347 0
-296 -14293 14294 0
-14294 14348 0
-297 -14294 14295 0
-14295 14349 0
-298 -14295 14296 0
-14296 14350 0
-299 -14296 14297 0
-14297 14351 0
-300 -14297 14298 0
-14298 14352 0
-301 -14298 14299 0
-14299 14353 0
-302 -14299 14300 0
-14300 14354 0
-303 -14300 14301 0
-14301 14355 0
-304 -14301 14302 0
-14302 14356 0
-305 -14302 14303 0
-14303 14357 0
-306 -14303 14304 0
-14304 14358 0
-307 -14304 14305 0
-14305 14359 0
-308 -14305 14306 0
-14306 14360 0
-309 -14306 14307 0
-14307 14361 0
-310 -14307 14308 0
-14308 14362 0
-311 -14308 14309 0
-14309 14363 0
-312 -14309 0
-259 14310 0
-14310 14364 0
-260 -14310 14311 0
-14311 14365 0
-261 -14311 14312 0
-14312 14366 0
-262 -14312 14313 0
-14313 14367 0
-263 -14313 14314 0
-14314 14368 0
-264 -14314 14315 0
-14315 14369 0
-265 -14315 14316 0
-14316 14370 0
-266 -14316 14317 0
-14317 14371 0
-267 -14317 14318 0
-14318 14372 0
-268 -14318 14319 0
-14319 14373 0
-269 -14319 14320 0
-14320 14374 0
-270 -14320 14321 0
-14321 14375 0
-271 -14321 14322 0
-14322 14376 0
-272 -14322 14323 0
-14323 14377 0
-273 -14323 14324 0
-14324 14378 0
-274 -14324 14325 0
-14325 14379 0
-275 -14325 14326 0
-14326 14380 0
-276 -14326 14327 0
-14327 14381 0
-277 -14327 14328 0
-14328 14382 0
-278 -14328 14329 0
-14329 14383 0
-279 -14329 14330 0
-14330 14384 0
-280 -14330 14331 0
-14331 14385 0
-281 -14331 14332 0
-14332 14386 0
-282 -14332 14333 0
-14333 14387 0
-283 -14333 14334 0
-14334 14388 0
-284 -14334 14335 0
-14335 14389 0
-285 -14335 14336 0
-14336 14390 0
-286 -14336 14337 0
-14337 14391 0
-287 -14337 14338 0
-14338 14392 0
-288 -14338 14339 0
-14339 14393 0
-289 -14339 14340 0
-14340 14394 0
-290 -14340 14341 0
-14341 14395 0
-291 -14341 14342 0
-14342 14396 0
-292 -14342 14343 0
-14343 14397 0
-293 -14343 14344 0
-14344 14398 0
-294 -14344 14345 0
-14345 14399 0
-295 -14345 14346 0
-14346 14400 0
-296 -14346 14347 0
-14347 14401 0
-297 -14347 14348 0
-14348 14402 0
-298 -14348 14349 0
-14349 14403 0
-299 -14349 14350 0
-14350 14404 0
-300 -14350 14351 0
-14351 14405 0
-301 -14351 14352 0
-14352 14406 0
-302 -14352 14353 0
-14353 14407 0
-303 -14353 14354 0
-14354 14408 0
-304 -14354 14355 0
-14355 14409 0
-305 -14355 14356 0
-14356 14410 0
-306 -14356 14357 0
-14357 14411 0
-307 -14357 14358 0
-14358 14412 0
-308 -14358 14359 0
-14359 14413 0
-309 -14359 14360 0
-14360 14414 0
-310 -14360 14361 0
-14361 14415 0
-311 -14361 14362 0
-14362 14416 0
-312 -14362 14363 0
-14363 14417 0
-313 -14363 0
-260 14364 0
-14364 14418 0
-261 -14364 14365 0
-14365 14419 0
-262 -14365 14366 0
-14366 14420 0
-263 -14366 14367 0
-14367 14421 0
-264 -14367 14368 0
-14368 14422 0
-265 -14368 14369 0
-14369 14423 0
-266 -14369 14370 0
-14370 14424 0
-267 -14370 14371 0
-14371 14425 0
-268 -14371 14372 0
-14372 14426 0
-269 -14372 14373 0
-14373 14427 0
-270 -14373 14374 0
-14374 14428 0
-271 -14374 14375 0
-14375 14429 0
-272 -14375 14376 0
-14376 14430 0
-273 -14376 14377 0
-14377 14431 0
-274 -14377 14378 0
-14378 14432 0
-275 -14378 14379 0
-14379 14433 0
-276 -14379 14380 0
-14380 14434 0
-277 -14380 14381 0
-14381 14435 0
-278 -14381 14382 0
-14382 14436 0
-279 -14382 14383 0
-14383 14437 0
-280 -14383 14384 0
-14384 14438 0
-281 -14384 14385 0
-14385 14439 0
-282 -14385 14386 0
-14386 14440 0
-283 -14386 14387 0
-14387 14441 0
-284 -14387 14388 0
-14388 14442 0
-285 -14388 14389 0
-14389 14443 0
-286 -14389 14390 0
-14390 14444 0
-287 -14390 14391 0
-14391 14445 0
-288 -14391 14392 0
-14392 14446 0
-289 -14392 14393 0
-14393 14447 0
-290 -14393 14394 0
-14394 14448 0
-291 -14394 14395 0
-14395 14449 0
-292 -14395 14396 0
-14396 14450 0
-293 -14396 14397 0
-14397 14451 0
-294 -14397 14398 0
-14398 14452 0
-295 -14398 14399 0
-14399 14453 0
-296 -14399 14400 0
-14400 14454 0
-297 -14400 14401 0
-14401 14455 0
-298 -14401 14402 0
-14402 14456 0
-299 -14402 14403 0
-14403 14457 0
-300 -14403 14404 0
-14404 14458 0
-301 -14404 14405 0
-14405 14459 0
-302 -14405 14406 0
-14406 14460 0
-303 -14406 14407 0
-14407 14461 0
-304 -14407 14408 0
-14408 14462 0
-305 -14408 14409 0
-14409 14463 0
-306 -14409 14410 0
-14410 14464 0
-307 -14410 14411 0
-14411 14465 0
-308 -14411 14412 0
-14412 14466 0
-309 -14412 14413 0
-14413 14467 0
-310 -14413 14414 0
-14414 14468 0
-311 -14414 14415 0
-14415 14469 0
-312 -14415 14416 0
-14416 14470 0
-313 -14416 14417 0
-14417 14471 0
-314 -14417 0
-261 14418 0
-14418 14472 0
-262 -14418 14419 0
-14419 14473 0
-263 -14419 14420 0
-14420 14474 0
-264 -14420 14421 0
-14421 14475 0
-265 -14421 14422 0
-14422 14476 0
-266 -14422 14423 0
-14423 14477 0
-267 -14423 14424 0
-14424 14478 0
-268 -14424 14425 0
-14425 14479 0
-269 -14425 14426 0
-14426 14480 0
-270 -14426 14427 0
-14427 14481 0
-271 -14427 14428 0
-14428 14482 0
-272 -14428 14429 0
-14429 14483 0
-273 -14429 14430 0
-14430 14484 0
-274 -14430 14431 0
-14431 14485 0
-275 -14431 14432 0
-14432 14486 0
-276 -14432 14433 0
-14433 14487 0
-277 -14433 14434 0
-14434 14488 0
-278 -14434 14435 0
-14435 14489 0
-279 -14435 14436 0
-14436 14490 0
-280 -14436 14437 0
-14437 14491 0
-281 -14437 14438 0
-14438 14492 0
-282 -14438 14439 0
-14439 14493 0
-283 -14439 14440 0
-14440 14494 0
-284 -14440 14441 0
-14441 14495 0
-285 -14441 14442 0
-14442 14496 0
-286 -14442 14443 0
-14443 14497 0
-287 -14443 14444 0
-14444 14498 0
-288 -14444 14445 0
-14445 14499 0
-289 -14445 14446 0
-14446 14500 0
-290 -14446 14447 0
-14447 14501 0
-291 -14447 14448 0
-14448 14502 0
-292 -14448 14449 0
-14449 14503 0
-293 -14449 14450 0
-14450 14504 0
-294 -14450 14451 0
-14451 14505 0
-295 -14451 14452 0
-14452 14506 0
-296 -14452 14453 0
-14453 14507 0
-297 -14453 14454 0
-14454 14508 0
-298 -14454 14455 0
-14455 14509 0
-299 -14455 14456 0
-14456 14510 0
-300 -14456 14457 0
-14457 14511 0
-301 -14457 14458 0
-14458 14512 0
-302 -14458 14459 0
-14459 14513 0
-303 -14459 14460 0
-14460 14514 0
-304 -14460 14461 0
-14461 14515 0
-305 -14461 14462 0
-14462 14516 0
-306 -14462 14463 0
-14463 14517 0
-307 -14463 14464 0
-14464 14518 0
-308 -14464 14465 0
-14465 14519 0
-309 -14465 14466 0
-14466 14520 0
-310 -14466 14467 0
-14467 14521 0
-311 -14467 14468 0
-14468 14522 0
-312 -14468 14469 0
-14469 14523 0
-313 -14469 14470 0
-14470 14524 0
-314 -14470 14471 0
-14471 14525 0
-315 -14471 0
-262 14472 0
-14472 14526 0
-263 -14472 14473 0
-14473 14527 0
-264 -14473 14474 0
-14474 14528 0
-265 -14474 14475 0
-14475 14529 0
-266 -14475 14476 0
-14476 14530 0
-267 -14476 14477 0
-14477 14531 0
-268 -14477 14478 0
-14478 14532 0
-269 -14478 14479 0
-14479 14533 0
-270 -14479 14480 0
-14480 14534 0
-271 -14480 14481 0
-14481 14535 0
-272 -14481 14482 0
-14482 14536 0
-273 -14482 14483 0
-14483 14537 0
-274 -14483 14484 0
-14484 14538 0
-275 -14484 14485 0
-14485 14539 0
-276 -14485 14486 0
-14486 14540 0
-277 -14486 14487 0
-14487 14541 0
-278 -14487 14488 0
-14488 14542 0
-279 -14488 14489 0
-14489 14543 0
-280 -14489 14490 0
-14490 14544 0
-281 -14490 14491 0
-14491 14545 0
-282 -14491 14492 0
-14492 14546 0
-283 -14492 14493 0
-14493 14547 0
-284 -14493 14494 0
-14494 14548 0
-285 -14494 14495 0
-14495 14549 0
-286 -14495 14496 0
-14496 14550 0
-287 -14496 14497 0
-14497 14551 0
-288 -14497 14498 0
-14498 14552 0
-289 -14498 14499 0
-14499 14553 0
-290 -14499 14500 0
-14500 14554 0
-291 -14500 14501 0
-14501 14555 0
-292 -14501 14502 0
-14502 14556 0
-293 -14502 14503 0
-14503 14557 0
-294 -14503 14504 0
-14504 14558 0
-295 -14504 14505 0
-14505 14559 0
-296 -14505 14506 0
-14506 14560 0
-297 -14506 14507 0
-14507 14561 0
-298 -14507 14508 0
-14508 14562 0
-299 -14508 14509 0
-14509 14563 0
-300 -14509 14510 0
-14510 14564 0
-301 -14510 14511 0
-14511 14565 0
-302 -14511 14512 0
-14512 14566 0
-303 -14512 14513 0
-14513 14567 0
-304 -14513 14514 0
-14514 14568 0
-305 -14514 14515 0
-14515 14569 0
-306 -14515 14516 0
-14516 14570 0
-307 -14516 14517 0
-14517 14571 0
-308 -14517 14518 0
-14518 14572 0
-309 -14518 14519 0
-14519 14573 0
-310 -14519 14520 0
-14520 14574 0
-311 -14520 14521 0
-14521 14575 0
-312 -14521 14522 0
-14522 14576 0
-313 -14522 14523 0
-14523 14577 0
-314 -14523 14524 0
-14524 14578 0
-315 -14524 14525 0
-14525 14579 0
-316 -14525 0
-263 14526 0
-14526 14580 0
-264 -14526 14527 0
-14527 14581 0
-265 -14527 14528 0
-14528 14582 0
-266 -14528 14529 0
-14529 14583 0
-267 -14529 14530 0
-14530 14584 0
-268 -14530 14531 0
-14531 14585 0
-269 -14531 14532 0
-14532 14586 0
-270 -14532 14533 0
-14533 14587 0
-271 -14533 14534 0
-14534 14588 0
-272 -14534 14535 0
-14535 14589 0
-273 -14535 14536 0
-14536 14590 0
-274 -14536 14537 0
-14537 14591 0
-275 -14537 14538 0
-14538 14592 0
-276 -14538 14539 0
-14539 14593 0
-277 -14539 14540 0
-14540 14594 0
-278 -14540 14541 0
-14541 14595 0
-279 -14541 14542 0
-14542 14596 0
-280 -14542 14543 0
-14543 14597 0
-281 -14543 14544 0
-14544 14598 0
-282 -14544 14545 0
-14545 14599 0
-283 -14545 14546 0
-14546 14600 0
-284 -14546 14547 0
-14547 14601 0
-285 -14547 14548 0
-14548 14602 0
-286 -14548 14549 0
-14549 14603 0
-287 -14549 14550 0
-14550 14604 0
-288 -14550 14551 0
-14551 14605 0
-289 -14551 14552 0
-14552 14606 0
-290 -14552 14553 0
-14553 14607 0
-291 -14553 14554 0
-14554 14608 0
-292 -14554 14555 0
-14555 14609 0
-293 -14555 14556 0
-14556 14610 0
-294 -14556 14557 0
-14557 14611 0
-295 -14557 14558 0
-14558 14612 0
-296 -14558 14559 0
-14559 14613 0
-297 -14559 14560 0
-14560 14614 0
-298 -14560 14561 0
-14561 14615 0
-299 -14561 14562 0
-14562 14616 0
-300 -14562 14563 0
-14563 14617 0
-301 -14563 14564 0
-14564 14618 0
-302 -14564 14565 0
-14565 14619 0
-303 -14565 14566 0
-14566 14620 0
-304 -14566 14567 0
-14567 14621 0
-305 -14567 14568 0
-14568 14622 0
-306 -14568 14569 0
-14569 14623 0
-307 -14569 14570 0
-14570 14624 0
-308 -14570 14571 0
-14571 14625 0
-309 -14571 14572 0
-14572 14626 0
-310 -14572 14573 0
-14573 14627 0
-311 -14573 14574 0
-14574 14628 0
-312 -14574 14575 0
-14575 14629 0
-313 -14575 14576 0
-14576 14630 0
-314 -14576 14577 0
-14577 14631 0
-315 -14577 14578 0
-14578 14632 0
-316 -14578 14579 0
-14579 14633 0
-317 -14579 0
-264 14580 0
-14580 14634 0
-265 -14580 14581 0
-14581 14635 0
-266 -14581 14582 0
-14582 14636 0
-267 -14582 14583 0
-14583 14637 0
-268 -14583 14584 0
-14584 14638 0
-269 -14584 14585 0
-14585 14639 0
-270 -14585 14586 0
-14586 14640 0
-271 -14586 14587 0
-14587 14641 0
-272 -14587 14588 0
-14588 14642 0
-273 -14588 14589 0
-14589 14643 0
-274 -14589 14590 0
-14590 14644 0
-275 -14590 14591 0
-14591 14645 0
-276 -14591 14592 0
-14592 14646 0
-277 -14592 14593 0
-14593 14647 0
-278 -14593 14594 0
-14594 14648 0
-279 -14594 14595 0
-14595 14649 0
-280 -14595 14596 0
-14596 14650 0
-281 -14596 14597 0
-14597 14651 0
-282 -14597 14598 0
-14598 14652 0
-283 -14598 14599 0
-14599 14653 0
-284 -14599 14600 0
-14600 14654 0
-285 -14600 14601 0
-14601 14655 0
-286 -14601 14602 0
-14602 14656 0
-287 -14602 14603 0
-14603 14657 0
-288 -14603 14604 0
-14604 14658 0
-289 -14604 14605 0
-14605 14659 0
-290 -14605 14606 0
-14606 14660 0
-291 -14606 14607 0
-14607 14661 0
-292 -14607 14608 0
-14608 14662 0
-293 -14608 14609 0
-14609 14663 0
-294 -14609 14610 0
-14610 14664 0
-295 -14610 14611 0
-14611 14665 0
-296 -14611 14612 0
-14612 14666 0
-297 -14612 14613 0
-14613 14667 0
-298 -14613 14614 0
-14614 14668 0
-299 -14614 14615 0
-14615 14669 0
-300 -14615 14616 0
-14616 14670 0
-301 -14616 14617 0
-14617 14671 0
-302 -14617 14618 0
-14618 14672 0
-303 -14618 14619 0
-14619 14673 0
-304 -14619 14620 0
-14620 14674 0
-305 -14620 14621 0
-14621 14675 0
-306 -14621 14622 0
-14622 14676 0
-307 -14622 14623 0
-14623 14677 0
-308 -14623 14624 0
-14624 14678 0
-309 -14624 14625 0
-14625 14679 0
-310 -14625 14626 0
-14626 14680 0
-311 -14626 14627 0
-14627 14681 0
-312 -14627 14628 0
-14628 14682 0
-313 -14628 14629 0
-14629 14683 0
-314 -14629 14630 0
-14630 14684 0
-315 -14630 14631 0
-14631 14685 0
-316 -14631 14632 0
-14632 14686 0
-317 -14632 14633 0
-14633 14687 0
-318 -14633 0
-265 14634 0
-14634 14688 0
-266 -14634 14635 0
-14635 14689 0
-267 -14635 14636 0
-14636 14690 0
-268 -14636 14637 0
-14637 14691 0
-269 -14637 14638 0
-14638 14692 0
-270 -14638 14639 0
-14639 14693 0
-271 -14639 14640 0
-14640 14694 0
-272 -14640 14641 0
-14641 14695 0
-273 -14641 14642 0
-14642 14696 0
-274 -14642 14643 0
-14643 14697 0
-275 -14643 14644 0
-14644 14698 0
-276 -14644 14645 0
-14645 14699 0
-277 -14645 14646 0
-14646 14700 0
-278 -14646 14647 0
-14647 14701 0
-279 -14647 14648 0
-14648 14702 0
-280 -14648 14649 0
-14649 14703 0
-281 -14649 14650 0
-14650 14704 0
-282 -14650 14651 0
-14651 14705 0
-283 -14651 14652 0
-14652 14706 0
-284 -14652 14653 0
-14653 14707 0
-285 -14653 14654 0
-14654 14708 0
-286 -14654 14655 0
-14655 14709 0
-287 -14655 14656 0
-14656 14710 0
-288 -14656 14657 0
-14657 14711 0
-289 -14657 14658 0
-14658 14712 0
-290 -14658 14659 0
-14659 14713 0
-291 -14659 14660 0
-14660 14714 0
-292 -14660 14661 0
-14661 14715 0
-293 -14661 14662 0
-14662 14716 0
-294 -14662 14663 0
-14663 14717 0
-295 -14663 14664 0
-14664 14718 0
-296 -14664 14665 0
-14665 14719 0
-297 -14665 14666 0
-14666 14720 0
-298 -14666 14667 0
-14667 14721 0
-299 -14667 14668 0
-14668 14722 0
-300 -14668 14669 0
-14669 14723 0
-301 -14669 14670 0
-14670 14724 0
-302 -14670 14671 0
-14671 14725 0
-303 -14671 14672 0
-14672 14726 0
-304 -14672 14673 0
-14673 14727 0
-305 -14673 14674 0
-14674 14728 0
-306 -14674 14675 0
-14675 14729 0
-307 -14675 14676 0
-14676 14730 0
-308 -14676 14677 0
-14677 14731 0
-309 -14677 14678 0
-14678 14732 0
-310 -14678 14679 0
-14679 14733 0
-311 -14679 14680 0
-14680 14734 0
-312 -14680 14681 0
-14681 14735 0
-313 -14681 14682 0
-14682 14736 0
-314 -14682 14683 0
-14683 14737 0
-315 -14683 14684 0
-14684 14738 0
-316 -14684 14685 0
-14685 14739 0
-317 -14685 14686 0
-14686 14740 0
-318 -14686 14687 0
-14687 14741 0
-319 -14687 0
-266 14688 0
-14688 14742 0
-267 -14688 14689 0
-14689 14743 0
-268 -14689 14690 0
-14690 14744 0
-269 -14690 14691 0
-14691 14745 0
-270 -14691 14692 0
-14692 14746 0
-271 -14692 14693 0
-14693 14747 0
-272 -14693 14694 0
-14694 14748 0
-273 -14694 14695 0
-14695 14749 0
-274 -14695 14696 0
-14696 14750 0
-275 -14696 14697 0
-14697 14751 0
-276 -14697 14698 0
-14698 14752 0
-277 -14698 14699 0
-14699 14753 0
-278 -14699 14700 0
-14700 14754 0
-279 -14700 14701 0
-14701 14755 0
-280 -14701 14702 0
-14702 14756 0
-281 -14702 14703 0
-14703 14757 0
-282 -14703 14704 0
-14704 14758 0
-283 -14704 14705 0
-14705 14759 0
-284 -14705 14706 0
-14706 14760 0
-285 -14706 14707 0
-14707 14761 0
-286 -14707 14708 0
-14708 14762 0
-287 -14708 14709 0
-14709 14763 0
-288 -14709 14710 0
-14710 14764 0
-289 -14710 14711 0
-14711 14765 0
-290 -14711 14712 0
-14712 14766 0
-291 -14712 14713 0
-14713 14767 0
-292 -14713 14714 0
-14714 14768 0
-293 -14714 14715 0
-14715 14769 0
-294 -14715 14716 0
-14716 14770 0
-295 -14716 14717 0
-14717 14771 0
-296 -14717 14718 0
-14718 14772 0
-297 -14718 14719 0
-14719 14773 0
-298 -14719 14720 0
-14720 14774 0
-299 -14720 14721 0
-14721 14775 0
-300 -14721 14722 0
-14722 14776 0
-301 -14722 14723 0
-14723 14777 0
-302 -14723 14724 0
-14724 14778 0
-303 -14724 14725 0
-14725 14779 0
-304 -14725 14726 0
-14726 14780 0
-305 -14726 14727 0
-14727 14781 0
-306 -14727 14728 0
-14728 14782 0
-307 -14728 14729 0
-14729 14783 0
-308 -14729 14730 0
-14730 14784 0
-309 -14730 14731 0
-14731 14785 0
-310 -14731 14732 0
-14732 14786 0
-311 -14732 14733 0
-14733 14787 0
-312 -14733 14734 0
-14734 14788 0
-313 -14734 14735 0
-14735 14789 0
-314 -14735 14736 0
-14736 14790 0
-315 -14736 14737 0
-14737 14791 0
-316 -14737 14738 0
-14738 14792 0
-317 -14738 14739 0
-14739 14793 0
-318 -14739 14740 0
-14740 14794 0
-319 -14740 14741 0
-14741 14795 0
-320 -14741 0
-267 14742 0
-14742 14796 0
-268 -14742 14743 0
-14743 14797 0
-269 -14743 14744 0
-14744 14798 0
-270 -14744 14745 0
-14745 14799 0
-271 -14745 14746 0
-14746 14800 0
-272 -14746 14747 0
-14747 14801 0
-273 -14747 14748 0
-14748 14802 0
-274 -14748 14749 0
-14749 14803 0
-275 -14749 14750 0
-14750 14804 0
-276 -14750 14751 0
-14751 14805 0
-277 -14751 14752 0
-14752 14806 0
-278 -14752 14753 0
-14753 14807 0
-279 -14753 14754 0
-14754 14808 0
-280 -14754 14755 0
-14755 14809 0
-281 -14755 14756 0
-14756 14810 0
-282 -14756 14757 0
-14757 14811 0
-283 -14757 14758 0
-14758 14812 0
-284 -14758 14759 0
-14759 14813 0
-285 -14759 14760 0
-14760 14814 0
-286 -14760 14761 0
-14761 14815 0
-287 -14761 14762 0
-14762 14816 0
-288 -14762 14763 0
-14763 14817 0
-289 -14763 14764 0
-14764 14818 0
-290 -14764 14765 0
-14765 14819 0
-291 -14765 14766 0
-14766 14820 0
-292 -14766 14767 0
-14767 14821 0
-293 -14767 14768 0
-14768 14822 0
-294 -14768 14769 0
-14769 14823 0
-295 -14769 14770 0
-14770 14824 0
-296 -14770 14771 0
-14771 14825 0
-297 -14771 14772 0
-14772 14826 0
-298 -14772 14773 0
-14773 14827 0
-299 -14773 14774 0
-14774 14828 0
-300 -14774 14775 0
-14775 14829 0
-301 -14775 14776 0
-14776 14830 0
-302 -14776 14777 0
-14777 14831 0
-303 -14777 14778 0
-14778 14832 0
-304 -14778 14779 0
-14779 14833 0
-305 -14779 14780 0
-14780 14834 0
-306 -14780 14781 0
-14781 14835 0
-307 -14781 14782 0
-14782 14836 0
-308 -14782 14783 0
-14783 14837 0
-309 -14783 14784 0
-14784 14838 0
-310 -14784 14785 0
-14785 14839 0
-311 -14785 14786 0
-14786 14840 0
-312 -14786 14787 0
-14787 14841 0
-313 -14787 14788 0
-14788 14842 0
-314 -14788 14789 0
-14789 14843 0
-315 -14789 14790 0
-14790 14844 0
-316 -14790 14791 0
-14791 14845 0
-317 -14791 14792 0
-14792 14846 0
-318 -14792 14793 0
-14793 14847 0
-319 -14793 14794 0
-14794 14848 0
-320 -14794 14795 0
-14795 14849 0
-321 -14795 0
-268 14796 0
-14796 14850 0
-269 -14796 14797 0
-14797 14851 0
-270 -14797 14798 0
-14798 14852 0
-271 -14798 14799 0
-14799 14853 0
-272 -14799 14800 0
-14800 14854 0
-273 -14800 14801 0
-14801 14855 0
-274 -14801 14802 0
-14802 14856 0
-275 -14802 14803 0
-14803 14857 0
-276 -14803 14804 0
-14804 14858 0
-277 -14804 14805 0
-14805 14859 0
-278 -14805 14806 0
-14806 14860 0
-279 -14806 14807 0
-14807 14861 0
-280 -14807 14808 0
-14808 14862 0
-281 -14808 14809 0
-14809 14863 0
-282 -14809 14810 0
-14810 14864 0
-283 -14810 14811 0
-14811 14865 0
-284 -14811 14812 0
-14812 14866 0
-285 -14812 14813 0
-14813 14867 0
-286 -14813 14814 0
-14814 14868 0
-287 -14814 14815 0
-14815 14869 0
-288 -14815 14816 0
-14816 14870 0
-289 -14816 14817 0
-14817 14871 0
-290 -14817 14818 0
-14818 14872 0
-291 -14818 14819 0
-14819 14873 0
-292 -14819 14820 0
-14820 14874 0
-293 -14820 14821 0
-14821 14875 0
-294 -14821 14822 0
-14822 14876 0
-295 -14822 14823 0
-14823 14877 0
-296 -14823 14824 0
-14824 14878 0
-297 -14824 14825 0
-14825 14879 0
-298 -14825 14826 0
-14826 14880 0
-299 -14826 14827 0
-14827 14881 0
-300 -14827 14828 0
-14828 14882 0
-301 -14828 14829 0
-14829 14883 0
-302 -14829 14830 0
-14830 14884 0
-303 -14830 14831 0
-14831 14885 0
-304 -14831 14832 0
-14832 14886 0
-305 -14832 14833 0
-14833 14887 0
-306 -14833 14834 0
-14834 14888 0
-307 -14834 14835 0
-14835 14889 0
-308 -14835 14836 0
-14836 14890 0
-309 -14836 14837 0
-14837 14891 0
-310 -14837 14838 0
-14838 14892 0
-311 -14838 14839 0
-14839 14893 0
-312 -14839 14840 0
-14840 14894 0
-313 -14840 14841 0
-14841 14895 0
-314 -14841 14842 0
-14842 14896 0
-315 -14842 14843 0
-14843 14897 0
-316 -14843 14844 0
-14844 14898 0
-317 -14844 14845 0
-14845 14899 0
-318 -14845 14846 0
-14846 14900 0
-319 -14846 14847 0
-14847 14901 0
-320 -14847 14848 0
-14848 14902 0
-321 -14848 14849 0
-14849 14903 0
-322 -14849 0
-269 14850 0
-14850 14904 0
-270 -14850 14851 0
-14851 14905 0
-271 -14851 14852 0
-14852 14906 0
-272 -14852 14853 0
-14853 14907 0
-273 -14853 14854 0
-14854 14908 0
-274 -14854 14855 0
-14855 14909 0
-275 -14855 14856 0
-14856 14910 0
-276 -14856 14857 0
-14857 14911 0
-277 -14857 14858 0
-14858 14912 0
-278 -14858 14859 0
-14859 14913 0
-279 -14859 14860 0
-14860 14914 0
-280 -14860 14861 0
-14861 14915 0
-281 -14861 14862 0
-14862 14916 0
-282 -14862 14863 0
-14863 14917 0
-283 -14863 14864 0
-14864 14918 0
-284 -14864 14865 0
-14865 14919 0
-285 -14865 14866 0
-14866 14920 0
-286 -14866 14867 0
-14867 14921 0
-287 -14867 14868 0
-14868 14922 0
-288 -14868 14869 0
-14869 14923 0
-289 -14869 14870 0
-14870 14924 0
-290 -14870 14871 0
-14871 14925 0
-291 -14871 14872 0
-14872 14926 0
-292 -14872 14873 0
-14873 14927 0
-293 -14873 14874 0
-14874 14928 0
-294 -14874 14875 0
-14875 14929 0
-295 -14875 14876 0
-14876 14930 0
-296 -14876 14877 0
-14877 14931 0
-297 -14877 14878 0
-14878 14932 0
-298 -14878 14879 0
-14879 14933 0
-299 -14879 14880 0
-14880 14934 0
-300 -14880 14881 0
-14881 14935 0
-301 -14881 14882 0
-14882 14936 0
-302 -14882 14883 0
-14883 14937 0
-303 -14883 14884 0
-14884 14938 0
-304 -14884 14885 0
-14885 14939 0
-305 -14885 14886 0
-14886 14940 0
-306 -14886 14887 0
-14887 14941 0
-307 -14887 14888 0
-14888 14942 0
-308 -14888 14889 0
-14889 14943 0
-309 -14889 14890 0
-14890 14944 0
-310 -14890 14891 0
-14891 14945 0
-311 -14891 14892 0
-14892 14946 0
-312 -14892 14893 0
-14893 14947 0
-313 -14893 14894 0
-14894 14948 0
-314 -14894 14895 0
-14895 14949 0
-315 -14895 14896 0
-14896 14950 0
-316 -14896 14897 0
-14897 14951 0
-317 -14897 14898 0
-14898 14952 0
-318 -14898 14899 0
-14899 14953 0
-319 -14899 14900 0
-14900 14954 0
-320 -14900 14901 0
-14901 14955 0
-321 -14901 14902 0
-14902 14956 0
-322 -14902 14903 0
-14903 14957 0
-323 -14903 0
-270 14904 0
-14904 14958 0
-271 -14904 14905 0
-14905 14959 0
-272 -14905 14906 0
-14906 14960 0
-273 -14906 14907 0
-14907 14961 0
-274 -14907 14908 0
-14908 14962 0
-275 -14908 14909 0
-14909 14963 0
-276 -14909 14910 0
-14910 14964 0
-277 -14910 14911 0
-14911 14965 0
-278 -14911 14912 0
-14912 14966 0
-279 -14912 14913 0
-14913 14967 0
-280 -14913 14914 0
-14914 14968 0
-281 -14914 14915 0
-14915 14969 0
-282 -14915 14916 0
-14916 14970 0
-283 -14916 14917 0
-14917 14971 0
-284 -14917 14918 0
-14918 14972 0
-285 -14918 14919 0
-14919 14973 0
-286 -14919 14920 0
-14920 14974 0
-287 -14920 14921 0
-14921 14975 0
-288 -14921 14922 0
-14922 14976 0
-289 -14922 14923 0
-14923 14977 0
-290 -14923 14924 0
-14924 14978 0
-291 -14924 14925 0
-14925 14979 0
-292 -14925 14926 0
-14926 14980 0
-293 -14926 14927 0
-14927 14981 0
-294 -14927 14928 0
-14928 14982 0
-295 -14928 14929 0
-14929 14983 0
-296 -14929 14930 0
-14930 14984 0
-297 -14930 14931 0
-14931 14985 0
-298 -14931 14932 0
-14932 14986 0
-299 -14932 14933 0
-14933 14987 0
-300 -14933 14934 0
-14934 14988 0
-301 -14934 14935 0
-14935 14989 0
-302 -14935 14936 0
-14936 14990 0
-303 -14936 14937 0
-14937 14991 0
-304 -14937 14938 0
-14938 14992 0
-305 -14938 14939 0
-14939 14993 0
-306 -14939 14940 0
-14940 14994 0
-307 -14940 14941 0
-14941 14995 0
-308 -14941 14942 0
-14942 14996 0
-309 -14942 14943 0
-14943 14997 0
-310 -14943 14944 0
-14944 14998 0
-311 -14944 14945 0
-14945 14999 0
-312 -14945 14946 0
-14946 15000 0
-313 -14946 14947 0
-14947 15001 0
-314 -14947 14948 0
-14948 15002 0
-315 -14948 14949 0
-14949 15003 0
-316 -14949 14950 0
-14950 15004 0
-317 -14950 14951 0
-14951 15005 0
-318 -14951 14952 0
-14952 15006 0
-319 -14952 14953 0
-14953 15007 0
-320 -14953 14954 0
-14954 15008 0
-321 -14954 14955 0
-14955 15009 0
-322 -14955 14956 0
-14956 15010 0
-323 -14956 14957 0
-14957 15011 0
-324 -14957 0
-271 14958 0
-14958 15012 0
-272 -14958 14959 0
-14959 15013 0
-273 -14959 14960 0
-14960 15014 0
-274 -14960 14961 0
-14961 15015 0
-275 -14961 14962 0
-14962 15016 0
-276 -14962 14963 0
-14963 15017 0
-277 -14963 14964 0
-14964 15018 0
-278 -14964 14965 0
-14965 15019 0
-279 -14965 14966 0
-14966 15020 0
-280 -14966 14967 0
-14967 15021 0
-281 -14967 14968 0
-14968 15022 0
-282 -14968 14969 0
-14969 15023 0
-283 -14969 14970 0
-14970 15024 0
-284 -14970 14971 0
-14971 15025 0
-285 -14971 14972 0
-14972 15026 0
-286 -14972 14973 0
-14973 15027 0
-287 -14973 14974 0
-14974 15028 0
-288 -14974 14975 0
-14975 15029 0
-289 -14975 14976 0
-14976 15030 0
-290 -14976 14977 0
-14977 15031 0
-291 -14977 14978 0
-14978 15032 0
-292 -14978 14979 0
-14979 15033 0
-293 -14979 14980 0
-14980 15034 0
-294 -14980 14981 0
-14981 15035 0
-295 -14981 14982 0
-14982 15036 0
-296 -14982 14983 0
-14983 15037 0
-297 -14983 14984 0
-14984 15038 0
-298 -14984 14985 0
-14985 15039 0
-299 -14985 14986 0
-14986 15040 0
-300 -14986 14987 0
-14987 15041 0
-301 -14987 14988 0
-14988 15042 0
-302 -14988 14989 0
-14989 15043 0
-303 -14989 14990 0
-14990 15044 0
-304 -14990 14991 0
-14991 15045 0
-305 -14991 14992 0
-14992 15046 0
-306 -14992 14993 0
-14993 15047 0
-307 -14993 14994 0
-14994 15048 0
-308 -14994 14995 0
-14995 15049 0
-309 -14995 14996 0
-14996 15050 0
-310 -14996 14997 0
-14997 15051 0
-311 -14997 14998 0
-14998 15052 0
-312 -14998 14999 0
-14999 15053 0
-313 -14999 15000 0
-15000 15054 0
-314 -15000 15001 0
-15001 15055 0
-315 -15001 15002 0
-15002 15056 0
-316 -15002 15003 0
-15003 15057 0
-317 -15003 15004 0
-15004 15058 0
-318 -15004 15005 0
-15005 15059 0
-319 -15005 15006 0
-15006 15060 0
-320 -15006 15007 0
-15007 15061 0
-321 -15007 15008 0
-15008 15062 0
-322 -15008 15009 0
-15009 15063 0
-323 -15009 15010 0
-15010 15064 0
-324 -15010 15011 0
-15011 15065 0
-325 -15011 0
-272 15012 0
-15012 15066 0
-273 -15012 15013 0
-15013 15067 0
-274 -15013 15014 0
-15014 15068 0
-275 -15014 15015 0
-15015 15069 0
-276 -15015 15016 0
-15016 15070 0
-277 -15016 15017 0
-15017 15071 0
-278 -15017 15018 0
-15018 15072 0
-279 -15018 15019 0
-15019 15073 0
-280 -15019 15020 0
-15020 15074 0
-281 -15020 15021 0
-15021 15075 0
-282 -15021 15022 0
-15022 15076 0
-283 -15022 15023 0
-15023 15077 0
-284 -15023 15024 0
-15024 15078 0
-285 -15024 15025 0
-15025 15079 0
-286 -15025 15026 0
-15026 15080 0
-287 -15026 15027 0
-15027 15081 0
-288 -15027 15028 0
-15028 15082 0
-289 -15028 15029 0
-15029 15083 0
-290 -15029 15030 0
-15030 15084 0
-291 -15030 15031 0
-15031 15085 0
-292 -15031 15032 0
-15032 15086 0
-293 -15032 15033 0
-15033 15087 0
-294 -15033 15034 0
-15034 15088 0
-295 -15034 15035 0
-15035 15089 0
-296 -15035 15036 0
-15036 15090 0
-297 -15036 15037 0
-15037 15091 0
-298 -15037 15038 0
-15038 15092 0
-299 -15038 15039 0
-15039 15093 0
-300 -15039 15040 0
-15040 15094 0
-301 -15040 15041 0
-15041 15095 0
-302 -15041 15042 0
-15042 15096 0
-303 -15042 15043 0
-15043 15097 0
-304 -15043 15044 0
-15044 15098 0
-305 -15044 15045 0
-15045 15099 0
-306 -15045 15046 0
-15046 15100 0
-307 -15046 15047 0
-15047 15101 0
-308 -15047 15048 0
-15048 15102 0
-309 -15048 15049 0
-15049 15103 0
-310 -15049 15050 0
-15050 15104 0
-311 -15050 15051 0
-15051 15105 0
-312 -15051 15052 0
-15052 15106 0
-313 -15052 15053 0
-15053 15107 0
-314 -15053 15054 0
-15054 15108 0
-315 -15054 15055 0
-15055 15109 0
-316 -15055 15056 0
-15056 15110 0
-317 -15056 15057 0
-15057 15111 0
-318 -15057 15058 0
-15058 15112 0
-319 -15058 15059 0
-15059 15113 0
-320 -15059 15060 0
-15060 15114 0
-321 -15060 15061 0
-15061 15115 0
-322 -15061 15062 0
-15062 15116 0
-323 -15062 15063 0
-15063 15117 0
-324 -15063 15064 0
-15064 15118 0
-325 -15064 15065 0
-15065 15119 0
-326 -15065 0
-273 15066 0
-15066 15120 0
-274 -15066 15067 0
-15067 15121 0
-275 -15067 15068 0
-15068 15122 0
-276 -15068 15069 0
-15069 15123 0
-277 -15069 15070 0
-15070 15124 0
-278 -15070 15071 0
-15071 15125 0
-279 -15071 15072 0
-15072 15126 0
-280 -15072 15073 0
-15073 15127 0
-281 -15073 15074 0
-15074 15128 0
-282 -15074 15075 0
-15075 15129 0
-283 -15075 15076 0
-15076 15130 0
-284 -15076 15077 0
-15077 15131 0
-285 -15077 15078 0
-15078 15132 0
-286 -15078 15079 0
-15079 15133 0
-287 -15079 15080 0
-15080 15134 0
-288 -15080 15081 0
-15081 15135 0
-289 -15081 15082 0
-15082 15136 0
-290 -15082 15083 0
-15083 15137 0
-291 -15083 15084 0
-15084 15138 0
-292 -15084 15085 0
-15085 15139 0
-293 -15085 15086 0
-15086 15140 0
-294 -15086 15087 0
-15087 15141 0
-295 -15087 15088 0
-15088 15142 0
-296 -15088 15089 0
-15089 15143 0
-297 -15089 15090 0
-15090 15144 0
-298 -15090 15091 0
-15091 15145 0
-299 -15091 15092 0
-15092 15146 0
-300 -15092 15093 0
-15093 15147 0
-301 -15093 15094 0
-15094 15148 0
-302 -15094 15095 0
-15095 15149 0
-303 -15095 15096 0
-15096 15150 0
-304 -15096 15097 0
-15097 15151 0
-305 -15097 15098 0
-15098 15152 0
-306 -15098 15099 0
-15099 15153 0
-307 -15099 15100 0
-15100 15154 0
-308 -15100 15101 0
-15101 15155 0
-309 -15101 15102 0
-15102 15156 0
-310 -15102 15103 0
-15103 15157 0
-311 -15103 15104 0
-15104 15158 0
-312 -15104 15105 0
-15105 15159 0
-313 -15105 15106 0
-15106 15160 0
-314 -15106 15107 0
-15107 15161 0
-315 -15107 15108 0
-15108 15162 0
-316 -15108 15109 0
-15109 15163 0
-317 -15109 15110 0
-15110 15164 0
-318 -15110 15111 0
-15111 15165 0
-319 -15111 15112 0
-15112 15166 0
-320 -15112 15113 0
-15113 15167 0
-321 -15113 15114 0
-15114 15168 0
-322 -15114 15115 0
-15115 15169 0
-323 -15115 15116 0
-15116 15170 0
-324 -15116 15117 0
-15117 15171 0
-325 -15117 15118 0
-15118 15172 0
-326 -15118 15119 0
-15119 15173 0
-327 -15119 0
-274 15120 0
-15120 15174 0
-275 -15120 15121 0
-15121 15175 0
-276 -15121 15122 0
-15122 15176 0
-277 -15122 15123 0
-15123 15177 0
-278 -15123 15124 0
-15124 15178 0
-279 -15124 15125 0
-15125 15179 0
-280 -15125 15126 0
-15126 15180 0
-281 -15126 15127 0
-15127 15181 0
-282 -15127 15128 0
-15128 15182 0
-283 -15128 15129 0
-15129 15183 0
-284 -15129 15130 0
-15130 15184 0
-285 -15130 15131 0
-15131 15185 0
-286 -15131 15132 0
-15132 15186 0
-287 -15132 15133 0
-15133 15187 0
-288 -15133 15134 0
-15134 15188 0
-289 -15134 15135 0
-15135 15189 0
-290 -15135 15136 0
-15136 15190 0
-291 -15136 15137 0
-15137 15191 0
-292 -15137 15138 0
-15138 15192 0
-293 -15138 15139 0
-15139 15193 0
-294 -15139 15140 0
-15140 15194 0
-295 -15140 15141 0
-15141 15195 0
-296 -15141 15142 0
-15142 15196 0
-297 -15142 15143 0
-15143 15197 0
-298 -15143 15144 0
-15144 15198 0
-299 -15144 15145 0
-15145 15199 0
-300 -15145 15146 0
-15146 15200 0
-301 -15146 15147 0
-15147 15201 0
-302 -15147 15148 0
-15148 15202 0
-303 -15148 15149 0
-15149 15203 0
-304 -15149 15150 0
-15150 15204 0
-305 -15150 15151 0
-15151 15205 0
-306 -15151 15152 0
-15152 15206 0
-307 -15152 15153 0
-15153 15207 0
-308 -15153 15154 0
-15154 15208 0
-309 -15154 15155 0
-15155 15209 0
-310 -15155 15156 0
-15156 15210 0
-311 -15156 15157 0
-15157 15211 0
-312 -15157 15158 0
-15158 15212 0
-313 -15158 15159 0
-15159 15213 0
-314 -15159 15160 0
-15160 15214 0
-315 -15160 15161 0
-15161 15215 0
-316 -15161 15162 0
-15162 15216 0
-317 -15162 15163 0
-15163 15217 0
-318 -15163 15164 0
-15164 15218 0
-319 -15164 15165 0
-15165 15219 0
-320 -15165 15166 0
-15166 15220 0
-321 -15166 15167 0
-15167 15221 0
-322 -15167 15168 0
-15168 15222 0
-323 -15168 15169 0
-15169 15223 0
-324 -15169 15170 0
-15170 15224 0
-325 -15170 15171 0
-15171 15225 0
-326 -15171 15172 0
-15172 15226 0
-327 -15172 15173 0
-15173 15227 0
-328 -15173 0
-275 15174 0
-15174 15228 0
-276 -15174 15175 0
-15175 15229 0
-277 -15175 15176 0
-15176 15230 0
-278 -15176 15177 0
-15177 15231 0
-279 -15177 15178 0
-15178 15232 0
-280 -15178 15179 0
-15179 15233 0
-281 -15179 15180 0
-15180 15234 0
-282 -15180 15181 0
-15181 15235 0
-283 -15181 15182 0
-15182 15236 0
-284 -15182 15183 0
-15183 15237 0
-285 -15183 15184 0
-15184 15238 0
-286 -15184 15185 0
-15185 15239 0
-287 -15185 15186 0
-15186 15240 0
-288 -15186 15187 0
-15187 15241 0
-289 -15187 15188 0
-15188 15242 0
-290 -15188 15189 0
-15189 15243 0
-291 -15189 15190 0
-15190 15244 0
-292 -15190 15191 0
-15191 15245 0
-293 -15191 15192 0
-15192 15246 0
-294 -15192 15193 0
-15193 15247 0
-295 -15193 15194 0
-15194 15248 0
-296 -15194 15195 0
-15195 15249 0
-297 -15195 15196 0
-15196 15250 0
-298 -15196 15197 0
-15197 15251 0
-299 -15197 15198 0
-15198 15252 0
-300 -15198 15199 0
-15199 15253 0
-301 -15199 15200 0
-15200 15254 0
-302 -15200 15201 0
-15201 15255 0
-303 -15201 15202 0
-15202 15256 0
-304 -15202 15203 0
-15203 15257 0
-305 -15203 15204 0
-15204 15258 0
-306 -15204 15205 0
-15205 15259 0
-307 -15205 15206 0
-15206 15260 0
-308 -15206 15207 0
-15207 15261 0
-309 -15207 15208 0
-15208 15262 0
-310 -15208 15209 0
-15209 15263 0
-311 -15209 15210 0
-15210 15264 0
-312 -15210 15211 0
-15211 15265 0
-313 -15211 15212 0
-15212 15266 0
-314 -15212 15213 0
-15213 15267 0
-315 -15213 15214 0
-15214 15268 0
-316 -15214 15215 0
-15215 15269 0
-317 -15215 15216 0
-15216 15270 0
-318 -15216 15217 0
-15217 15271 0
-319 -15217 15218 0
-15218 15272 0
-320 -15218 15219 0
-15219 15273 0
-321 -15219 15220 0
-15220 15274 0
-322 -15220 15221 0
-15221 15275 0
-323 -15221 15222 0
-15222 15276 0
-324 -15222 15223 0
-15223 15277 0
-325 -15223 15224 0
-15224 15278 0
-326 -15224 15225 0
-15225 15279 0
-327 -15225 15226 0
-15226 15280 0
-328 -15226 15227 0
-15227 15281 0
-329 -15227 0
-276 15228 0
-15228 15282 0
-277 -15228 15229 0
-15229 15283 0
-278 -15229 15230 0
-15230 15284 0
-279 -15230 15231 0
-15231 15285 0
-280 -15231 15232 0
-15232 15286 0
-281 -15232 15233 0
-15233 15287 0
-282 -15233 15234 0
-15234 15288 0
-283 -15234 15235 0
-15235 15289 0
-284 -15235 15236 0
-15236 15290 0
-285 -15236 15237 0
-15237 15291 0
-286 -15237 15238 0
-15238 15292 0
-287 -15238 15239 0
-15239 15293 0
-288 -15239 15240 0
-15240 15294 0
-289 -15240 15241 0
-15241 15295 0
-290 -15241 15242 0
-15242 15296 0
-291 -15242 15243 0
-15243 15297 0
-292 -15243 15244 0
-15244 15298 0
-293 -15244 15245 0
-15245 15299 0
-294 -15245 15246 0
-15246 15300 0
-295 -15246 15247 0
-15247 15301 0
-296 -15247 15248 0
-15248 15302 0
-297 -15248 15249 0
-15249 15303 0
-298 -15249 15250 0
-15250 15304 0
-299 -15250 15251 0
-15251 15305 0
-300 -15251 15252 0
-15252 15306 0
-301 -15252 15253 0
-15253 15307 0
-302 -15253 15254 0
-15254 15308 0
-303 -15254 15255 0
-15255 15309 0
-304 -15255 15256 0
-15256 15310 0
-305 -15256 15257 0
-15257 15311 0
-306 -15257 15258 0
-15258 15312 0
-307 -15258 15259 0
-15259 15313 0
-308 -15259 15260 0
-15260 15314 0
-309 -15260 15261 0
-15261 15315 0
-310 -15261 15262 0
-15262 15316 0
-311 -15262 15263 0
-15263 15317 0
-312 -15263 15264 0
-15264 15318 0
-313 -15264 15265 0
-15265 15319 0
-314 -15265 15266 0
-15266 15320 0
-315 -15266 15267 0
-15267 15321 0
-316 -15267 15268 0
-15268 15322 0
-317 -15268 15269 0
-15269 15323 0
-318 -15269 15270 0
-15270 15324 0
-319 -15270 15271 0
-15271 15325 0
-320 -15271 15272 0
-15272 15326 0
-321 -15272 15273 0
-15273 15327 0
-322 -15273 15274 0
-15274 15328 0
-323 -15274 15275 0
-15275 15329 0
-324 -15275 15276 0
-15276 15330 0
-325 -15276 15277 0
-15277 15331 0
-326 -15277 15278 0
-15278 15332 0
-327 -15278 15279 0
-15279 15333 0
-328 -15279 15280 0
-15280 15334 0
-329 -15280 15281 0
-15281 15335 0
-330 -15281 0
-277 15282 0
-15282 15336 0
-278 -15282 15283 0
-15283 15337 0
-279 -15283 15284 0
-15284 15338 0
-280 -15284 15285 0
-15285 15339 0
-281 -15285 15286 0
-15286 15340 0
-282 -15286 15287 0
-15287 15341 0
-283 -15287 15288 0
-15288 15342 0
-284 -15288 15289 0
-15289 15343 0
-285 -15289 15290 0
-15290 15344 0
-286 -15290 15291 0
-15291 15345 0
-287 -15291 15292 0
-15292 15346 0
-288 -15292 15293 0
-15293 15347 0
-289 -15293 15294 0
-15294 15348 0
-290 -15294 15295 0
-15295 15349 0
-291 -15295 15296 0
-15296 15350 0
-292 -15296 15297 0
-15297 15351 0
-293 -15297 15298 0
-15298 15352 0
-294 -15298 15299 0
-15299 15353 0
-295 -15299 15300 0
-15300 15354 0
-296 -15300 15301 0
-15301 15355 0
-297 -15301 15302 0
-15302 15356 0
-298 -15302 15303 0
-15303 15357 0
-299 -15303 15304 0
-15304 15358 0
-300 -15304 15305 0
-15305 15359 0
-301 -15305 15306 0
-15306 15360 0
-302 -15306 15307 0
-15307 15361 0
-303 -15307 15308 0
-15308 15362 0
-304 -15308 15309 0
-15309 15363 0
-305 -15309 15310 0
-15310 15364 0
-306 -15310 15311 0
-15311 15365 0
-307 -15311 15312 0
-15312 15366 0
-308 -15312 15313 0
-15313 15367 0
-309 -15313 15314 0
-15314 15368 0
-310 -15314 15315 0
-15315 15369 0
-311 -15315 15316 0
-15316 15370 0
-312 -15316 15317 0
-15317 15371 0
-313 -15317 15318 0
-15318 15372 0
-314 -15318 15319 0
-15319 15373 0
-315 -15319 15320 0
-15320 15374 0
-316 -15320 15321 0
-15321 15375 0
-317 -15321 15322 0
-15322 15376 0
-318 -15322 15323 0
-15323 15377 0
-319 -15323 15324 0
-15324 15378 0
-320 -15324 15325 0
-15325 15379 0
-321 -15325 15326 0
-15326 15380 0
-322 -15326 15327 0
-15327 15381 0
-323 -15327 15328 0
-15328 15382 0
-324 -15328 15329 0
-15329 15383 0
-325 -15329 15330 0
-15330 15384 0
-326 -15330 15331 0
-15331 15385 0
-327 -15331 15332 0
-15332 15386 0
-328 -15332 15333 0
-15333 15387 0
-329 -15333 15334 0
-15334 15388 0
-330 -15334 15335 0
-15335 15389 0
-331 -15335 0
-278 15336 0
-15336 15390 0
-279 -15336 15337 0
-15337 15391 0
-280 -15337 15338 0
-15338 15392 0
-281 -15338 15339 0
-15339 15393 0
-282 -15339 15340 0
-15340 15394 0
-283 -15340 15341 0
-15341 15395 0
-284 -15341 15342 0
-15342 15396 0
-285 -15342 15343 0
-15343 15397 0
-286 -15343 15344 0
-15344 15398 0
-287 -15344 15345 0
-15345 15399 0
-288 -15345 15346 0
-15346 15400 0
-289 -15346 15347 0
-15347 15401 0
-290 -15347 15348 0
-15348 15402 0
-291 -15348 15349 0
-15349 15403 0
-292 -15349 15350 0
-15350 15404 0
-293 -15350 15351 0
-15351 15405 0
-294 -15351 15352 0
-15352 15406 0
-295 -15352 15353 0
-15353 15407 0
-296 -15353 15354 0
-15354 15408 0
-297 -15354 15355 0
-15355 15409 0
-298 -15355 15356 0
-15356 15410 0
-299 -15356 15357 0
-15357 15411 0
-300 -15357 15358 0
-15358 15412 0
-301 -15358 15359 0
-15359 15413 0
-302 -15359 15360 0
-15360 15414 0
-303 -15360 15361 0
-15361 15415 0
-304 -15361 15362 0
-15362 15416 0
-305 -15362 15363 0
-15363 15417 0
-306 -15363 15364 0
-15364 15418 0
-307 -15364 15365 0
-15365 15419 0
-308 -15365 15366 0
-15366 15420 0
-309 -15366 15367 0
-15367 15421 0
-310 -15367 15368 0
-15368 15422 0
-311 -15368 15369 0
-15369 15423 0
-312 -15369 15370 0
-15370 15424 0
-313 -15370 15371 0
-15371 15425 0
-314 -15371 15372 0
-15372 15426 0
-315 -15372 15373 0
-15373 15427 0
-316 -15373 15374 0
-15374 15428 0
-317 -15374 15375 0
-15375 15429 0
-318 -15375 15376 0
-15376 15430 0
-319 -15376 15377 0
-15377 15431 0
-320 -15377 15378 0
-15378 15432 0
-321 -15378 15379 0
-15379 15433 0
-322 -15379 15380 0
-15380 15434 0
-323 -15380 15381 0
-15381 15435 0
-324 -15381 15382 0
-15382 15436 0
-325 -15382 15383 0
-15383 15437 0
-326 -15383 15384 0
-15384 15438 0
-327 -15384 15385 0
-15385 15439 0
-328 -15385 15386 0
-15386 15440 0
-329 -15386 15387 0
-15387 15441 0
-330 -15387 15388 0
-15388 15442 0
-331 -15388 15389 0
-15389 15443 0
-332 -15389 0
-279 15390 0
-15390 15444 0
-280 -15390 15391 0
-15391 15445 0
-281 -15391 15392 0
-15392 15446 0
-282 -15392 15393 0
-15393 15447 0
-283 -15393 15394 0
-15394 15448 0
-284 -15394 15395 0
-15395 15449 0
-285 -15395 15396 0
-15396 15450 0
-286 -15396 15397 0
-15397 15451 0
-287 -15397 15398 0
-15398 15452 0
-288 -15398 15399 0
-15399 15453 0
-289 -15399 15400 0
-15400 15454 0
-290 -15400 15401 0
-15401 15455 0
-291 -15401 15402 0
-15402 15456 0
-292 -15402 15403 0
-15403 15457 0
-293 -15403 15404 0
-15404 15458 0
-294 -15404 15405 0
-15405 15459 0
-295 -15405 15406 0
-15406 15460 0
-296 -15406 15407 0
-15407 15461 0
-297 -15407 15408 0
-15408 15462 0
-298 -15408 15409 0
-15409 15463 0
-299 -15409 15410 0
-15410 15464 0
-300 -15410 15411 0
-15411 15465 0
-301 -15411 15412 0
-15412 15466 0
-302 -15412 15413 0
-15413 15467 0
-303 -15413 15414 0
-15414 15468 0
-304 -15414 15415 0
-15415 15469 0
-305 -15415 15416 0
-15416 15470 0
-306 -15416 15417 0
-15417 15471 0
-307 -15417 15418 0
-15418 15472 0
-308 -15418 15419 0
-15419 15473 0
-309 -15419 15420 0
-15420 15474 0
-310 -15420 15421 0
-15421 15475 0
-311 -15421 15422 0
-15422 15476 0
-312 -15422 15423 0
-15423 15477 0
-313 -15423 15424 0
-15424 15478 0
-314 -15424 15425 0
-15425 15479 0
-315 -15425 15426 0
-15426 15480 0
-316 -15426 15427 0
-15427 15481 0
-317 -15427 15428 0
-15428 15482 0
-318 -15428 15429 0
-15429 15483 0
-319 -15429 15430 0
-15430 15484 0
-320 -15430 15431 0
-15431 15485 0
-321 -15431 15432 0
-15432 15486 0
-322 -15432 15433 0
-15433 15487 0
-323 -15433 15434 0
-15434 15488 0
-324 -15434 15435 0
-15435 15489 0
-325 -15435 15436 0
-15436 15490 0
-326 -15436 15437 0
-15437 15491 0
-327 -15437 15438 0
-15438 15492 0
-328 -15438 15439 0
-15439 15493 0
-329 -15439 15440 0
-15440 15494 0
-330 -15440 15441 0
-15441 15495 0
-331 -15441 15442 0
-15442 15496 0
-332 -15442 15443 0
-15443 15497 0
-333 -15443 0
-280 15444 0
-15444 15498 0
-281 -15444 15445 0
-15445 15499 0
-282 -15445 15446 0
-15446 15500 0
-283 -15446 15447 0
-15447 15501 0
-284 -15447 15448 0
-15448 15502 0
-285 -15448 15449 0
-15449 15503 0
-286 -15449 15450 0
-15450 15504 0
-287 -15450 15451 0
-15451 15505 0
-288 -15451 15452 0
-15452 15506 0
-289 -15452 15453 0
-15453 15507 0
-290 -15453 15454 0
-15454 15508 0
-291 -15454 15455 0
-15455 15509 0
-292 -15455 15456 0
-15456 15510 0
-293 -15456 15457 0
-15457 15511 0
-294 -15457 15458 0
-15458 15512 0
-295 -15458 15459 0
-15459 15513 0
-296 -15459 15460 0
-15460 15514 0
-297 -15460 15461 0
-15461 15515 0
-298 -15461 15462 0
-15462 15516 0
-299 -15462 15463 0
-15463 15517 0
-300 -15463 15464 0
-15464 15518 0
-301 -15464 15465 0
-15465 15519 0
-302 -15465 15466 0
-15466 15520 0
-303 -15466 15467 0
-15467 15521 0
-304 -15467 15468 0
-15468 15522 0
-305 -15468 15469 0
-15469 15523 0
-306 -15469 15470 0
-15470 15524 0
-307 -15470 15471 0
-15471 15525 0
-308 -15471 15472 0
-15472 15526 0
-309 -15472 15473 0
-15473 15527 0
-310 -15473 15474 0
-15474 15528 0
-311 -15474 15475 0
-15475 15529 0
-312 -15475 15476 0
-15476 15530 0
-313 -15476 15477 0
-15477 15531 0
-314 -15477 15478 0
-15478 15532 0
-315 -15478 15479 0
-15479 15533 0
-316 -15479 15480 0
-15480 15534 0
-317 -15480 15481 0
-15481 15535 0
-318 -15481 15482 0
-15482 15536 0
-319 -15482 15483 0
-15483 15537 0
-320 -15483 15484 0
-15484 15538 0
-321 -15484 15485 0
-15485 15539 0
-322 -15485 15486 0
-15486 15540 0
-323 -15486 15487 0
-15487 15541 0
-324 -15487 15488 0
-15488 15542 0
-325 -15488 15489 0
-15489 15543 0
-326 -15489 15490 0
-15490 15544 0
-327 -15490 15491 0
-15491 15545 0
-328 -15491 15492 0
-15492 15546 0
-329 -15492 15493 0
-15493 15547 0
-330 -15493 15494 0
-15494 15548 0
-331 -15494 15495 0
-15495 15549 0
-332 -15495 15496 0
-15496 15550 0
-333 -15496 15497 0
-15497 15551 0
-334 -15497 0
-281 15498 0
-15498 15552 0
-282 -15498 15499 0
-15499 15553 0
-283 -15499 15500 0
-15500 15554 0
-284 -15500 15501 0
-15501 15555 0
-285 -15501 15502 0
-15502 15556 0
-286 -15502 15503 0
-15503 15557 0
-287 -15503 15504 0
-15504 15558 0
-288 -15504 15505 0
-15505 15559 0
-289 -15505 15506 0
-15506 15560 0
-290 -15506 15507 0
-15507 15561 0
-291 -15507 15508 0
-15508 15562 0
-292 -15508 15509 0
-15509 15563 0
-293 -15509 15510 0
-15510 15564 0
-294 -15510 15511 0
-15511 15565 0
-295 -15511 15512 0
-15512 15566 0
-296 -15512 15513 0
-15513 15567 0
-297 -15513 15514 0
-15514 15568 0
-298 -15514 15515 0
-15515 15569 0
-299 -15515 15516 0
-15516 15570 0
-300 -15516 15517 0
-15517 15571 0
-301 -15517 15518 0
-15518 15572 0
-302 -15518 15519 0
-15519 15573 0
-303 -15519 15520 0
-15520 15574 0
-304 -15520 15521 0
-15521 15575 0
-305 -15521 15522 0
-15522 15576 0
-306 -15522 15523 0
-15523 15577 0
-307 -15523 15524 0
-15524 15578 0
-308 -15524 15525 0
-15525 15579 0
-309 -15525 15526 0
-15526 15580 0
-310 -15526 15527 0
-15527 15581 0
-311 -15527 15528 0
-15528 15582 0
-312 -15528 15529 0
-15529 15583 0
-313 -15529 15530 0
-15530 15584 0
-314 -15530 15531 0
-15531 15585 0
-315 -15531 15532 0
-15532 15586 0
-316 -15532 15533 0
-15533 15587 0
-317 -15533 15534 0
-15534 15588 0
-318 -15534 15535 0
-15535 15589 0
-319 -15535 15536 0
-15536 15590 0
-320 -15536 15537 0
-15537 15591 0
-321 -15537 15538 0
-15538 15592 0
-322 -15538 15539 0
-15539 15593 0
-323 -15539 15540 0
-15540 15594 0
-324 -15540 15541 0
-15541 15595 0
-325 -15541 15542 0
-15542 15596 0
-326 -15542 15543 0
-15543 15597 0
-327 -15543 15544 0
-15544 15598 0
-328 -15544 15545 0
-15545 15599 0
-329 -15545 15546 0
-15546 15600 0
-330 -15546 15547 0
-15547 15601 0
-331 -15547 15548 0
-15548 15602 0
-332 -15548 15549 0
-15549 15603 0
-333 -15549 15550 0
-15550 15604 0
-334 -15550 15551 0
-15551 15605 0
-335 -15551 0
-282 15552 0
-15552 15606 0
-283 -15552 15553 0
-15553 15607 0
-284 -15553 15554 0
-15554 15608 0
-285 -15554 15555 0
-15555 15609 0
-286 -15555 15556 0
-15556 15610 0
-287 -15556 15557 0
-15557 15611 0
-288 -15557 15558 0
-15558 15612 0
-289 -15558 15559 0
-15559 15613 0
-290 -15559 15560 0
-15560 15614 0
-291 -15560 15561 0
-15561 15615 0
-292 -15561 15562 0
-15562 15616 0
-293 -15562 15563 0
-15563 15617 0
-294 -15563 15564 0
-15564 15618 0
-295 -15564 15565 0
-15565 15619 0
-296 -15565 15566 0
-15566 15620 0
-297 -15566 15567 0
-15567 15621 0
-298 -15567 15568 0
-15568 15622 0
-299 -15568 15569 0
-15569 15623 0
-300 -15569 15570 0
-15570 15624 0
-301 -15570 15571 0
-15571 15625 0
-302 -15571 15572 0
-15572 15626 0
-303 -15572 15573 0
-15573 15627 0
-304 -15573 15574 0
-15574 15628 0
-305 -15574 15575 0
-15575 15629 0
-306 -15575 15576 0
-15576 15630 0
-307 -15576 15577 0
-15577 15631 0
-308 -15577 15578 0
-15578 15632 0
-309 -15578 15579 0
-15579 15633 0
-310 -15579 15580 0
-15580 15634 0
-311 -15580 15581 0
-15581 15635 0
-312 -15581 15582 0
-15582 15636 0
-313 -15582 15583 0
-15583 15637 0
-314 -15583 15584 0
-15584 15638 0
-315 -15584 15585 0
-15585 15639 0
-316 -15585 15586 0
-15586 15640 0
-317 -15586 15587 0
-15587 15641 0
-318 -15587 15588 0
-15588 15642 0
-319 -15588 15589 0
-15589 15643 0
-320 -15589 15590 0
-15590 15644 0
-321 -15590 15591 0
-15591 15645 0
-322 -15591 15592 0
-15592 15646 0
-323 -15592 15593 0
-15593 15647 0
-324 -15593 15594 0
-15594 15648 0
-325 -15594 15595 0
-15595 15649 0
-326 -15595 15596 0
-15596 15650 0
-327 -15596 15597 0
-15597 15651 0
-328 -15597 15598 0
-15598 15652 0
-329 -15598 15599 0
-15599 15653 0
-330 -15599 15600 0
-15600 15654 0
-331 -15600 15601 0
-15601 15655 0
-332 -15601 15602 0
-15602 15656 0
-333 -15602 15603 0
-15603 15657 0
-334 -15603 15604 0
-15604 15658 0
-335 -15604 15605 0
-15605 15659 0
-336 -15605 0
-283 15606 0
-15606 15660 0
-284 -15606 15607 0
-15607 15661 0
-285 -15607 15608 0
-15608 15662 0
-286 -15608 15609 0
-15609 15663 0
-287 -15609 15610 0
-15610 15664 0
-288 -15610 15611 0
-15611 15665 0
-289 -15611 15612 0
-15612 15666 0
-290 -15612 15613 0
-15613 15667 0
-291 -15613 15614 0
-15614 15668 0
-292 -15614 15615 0
-15615 15669 0
-293 -15615 15616 0
-15616 15670 0
-294 -15616 15617 0
-15617 15671 0
-295 -15617 15618 0
-15618 15672 0
-296 -15618 15619 0
-15619 15673 0
-297 -15619 15620 0
-15620 15674 0
-298 -15620 15621 0
-15621 15675 0
-299 -15621 15622 0
-15622 15676 0
-300 -15622 15623 0
-15623 15677 0
-301 -15623 15624 0
-15624 15678 0
-302 -15624 15625 0
-15625 15679 0
-303 -15625 15626 0
-15626 15680 0
-304 -15626 15627 0
-15627 15681 0
-305 -15627 15628 0
-15628 15682 0
-306 -15628 15629 0
-15629 15683 0
-307 -15629 15630 0
-15630 15684 0
-308 -15630 15631 0
-15631 15685 0
-309 -15631 15632 0
-15632 15686 0
-310 -15632 15633 0
-15633 15687 0
-311 -15633 15634 0
-15634 15688 0
-312 -15634 15635 0
-15635 15689 0
-313 -15635 15636 0
-15636 15690 0
-314 -15636 15637 0
-15637 15691 0
-315 -15637 15638 0
-15638 15692 0
-316 -15638 15639 0
-15639 15693 0
-317 -15639 15640 0
-15640 15694 0
-318 -15640 15641 0
-15641 15695 0
-319 -15641 15642 0
-15642 15696 0
-320 -15642 15643 0
-15643 15697 0
-321 -15643 15644 0
-15644 15698 0
-322 -15644 15645 0
-15645 15699 0
-323 -15645 15646 0
-15646 15700 0
-324 -15646 15647 0
-15647 15701 0
-325 -15647 15648 0
-15648 15702 0
-326 -15648 15649 0
-15649 15703 0
-327 -15649 15650 0
-15650 15704 0
-328 -15650 15651 0
-15651 15705 0
-329 -15651 15652 0
-15652 15706 0
-330 -15652 15653 0
-15653 15707 0
-331 -15653 15654 0
-15654 15708 0
-332 -15654 15655 0
-15655 15709 0
-333 -15655 15656 0
-15656 15710 0
-334 -15656 15657 0
-15657 15711 0
-335 -15657 15658 0
-15658 15712 0
-336 -15658 15659 0
-15659 15713 0
-337 -15659 0
-284 15660 0
-15660 15714 0
-285 -15660 15661 0
-15661 15715 0
-286 -15661 15662 0
-15662 15716 0
-287 -15662 15663 0
-15663 15717 0
-288 -15663 15664 0
-15664 15718 0
-289 -15664 15665 0
-15665 15719 0
-290 -15665 15666 0
-15666 15720 0
-291 -15666 15667 0
-15667 15721 0
-292 -15667 15668 0
-15668 15722 0
-293 -15668 15669 0
-15669 15723 0
-294 -15669 15670 0
-15670 15724 0
-295 -15670 15671 0
-15671 15725 0
-296 -15671 15672 0
-15672 15726 0
-297 -15672 15673 0
-15673 15727 0
-298 -15673 15674 0
-15674 15728 0
-299 -15674 15675 0
-15675 15729 0
-300 -15675 15676 0
-15676 15730 0
-301 -15676 15677 0
-15677 15731 0
-302 -15677 15678 0
-15678 15732 0
-303 -15678 15679 0
-15679 15733 0
-304 -15679 15680 0
-15680 15734 0
-305 -15680 15681 0
-15681 15735 0
-306 -15681 15682 0
-15682 15736 0
-307 -15682 15683 0
-15683 15737 0
-308 -15683 15684 0
-15684 15738 0
-309 -15684 15685 0
-15685 15739 0
-310 -15685 15686 0
-15686 15740 0
-311 -15686 15687 0
-15687 15741 0
-312 -15687 15688 0
-15688 15742 0
-313 -15688 15689 0
-15689 15743 0
-314 -15689 15690 0
-15690 15744 0
-315 -15690 15691 0
-15691 15745 0
-316 -15691 15692 0
-15692 15746 0
-317 -15692 15693 0
-15693 15747 0
-318 -15693 15694 0
-15694 15748 0
-319 -15694 15695 0
-15695 15749 0
-320 -15695 15696 0
-15696 15750 0
-321 -15696 15697 0
-15697 15751 0
-322 -15697 15698 0
-15698 15752 0
-323 -15698 15699 0
-15699 15753 0
-324 -15699 15700 0
-15700 15754 0
-325 -15700 15701 0
-15701 15755 0
-326 -15701 15702 0
-15702 15756 0
-327 -15702 15703 0
-15703 15757 0
-328 -15703 15704 0
-15704 15758 0
-329 -15704 15705 0
-15705 15759 0
-330 -15705 15706 0
-15706 15760 0
-331 -15706 15707 0
-15707 15761 0
-332 -15707 15708 0
-15708 15762 0
-333 -15708 15709 0
-15709 15763 0
-334 -15709 15710 0
-15710 15764 0
-335 -15710 15711 0
-15711 15765 0
-336 -15711 15712 0
-15712 15766 0
-337 -15712 15713 0
-15713 15767 0
-338 -15713 0
-285 15714 0
-15714 15768 0
-286 -15714 15715 0
-15715 15769 0
-287 -15715 15716 0
-15716 15770 0
-288 -15716 15717 0
-15717 15771 0
-289 -15717 15718 0
-15718 15772 0
-290 -15718 15719 0
-15719 15773 0
-291 -15719 15720 0
-15720 15774 0
-292 -15720 15721 0
-15721 15775 0
-293 -15721 15722 0
-15722 15776 0
-294 -15722 15723 0
-15723 15777 0
-295 -15723 15724 0
-15724 15778 0
-296 -15724 15725 0
-15725 15779 0
-297 -15725 15726 0
-15726 15780 0
-298 -15726 15727 0
-15727 15781 0
-299 -15727 15728 0
-15728 15782 0
-300 -15728 15729 0
-15729 15783 0
-301 -15729 15730 0
-15730 15784 0
-302 -15730 15731 0
-15731 15785 0
-303 -15731 15732 0
-15732 15786 0
-304 -15732 15733 0
-15733 15787 0
-305 -15733 15734 0
-15734 15788 0
-306 -15734 15735 0
-15735 15789 0
-307 -15735 15736 0
-15736 15790 0
-308 -15736 15737 0
-15737 15791 0
-309 -15737 15738 0
-15738 15792 0
-310 -15738 15739 0
-15739 15793 0
-311 -15739 15740 0
-15740 15794 0
-312 -15740 15741 0
-15741 15795 0
-313 -15741 15742 0
-15742 15796 0
-314 -15742 15743 0
-15743 15797 0
-315 -15743 15744 0
-15744 15798 0
-316 -15744 15745 0
-15745 15799 0
-317 -15745 15746 0
-15746 15800 0
-318 -15746 15747 0
-15747 15801 0
-319 -15747 15748 0
-15748 15802 0
-320 -15748 15749 0
-15749 15803 0
-321 -15749 15750 0
-15750 15804 0
-322 -15750 15751 0
-15751 15805 0
-323 -15751 15752 0
-15752 15806 0
-324 -15752 15753 0
-15753 15807 0
-325 -15753 15754 0
-15754 15808 0
-326 -15754 15755 0
-15755 15809 0
-327 -15755 15756 0
-15756 15810 0
-328 -15756 15757 0
-15757 15811 0
-329 -15757 15758 0
-15758 15812 0
-330 -15758 15759 0
-15759 15813 0
-331 -15759 15760 0
-15760 15814 0
-332 -15760 15761 0
-15761 15815 0
-333 -15761 15762 0
-15762 15816 0
-334 -15762 15763 0
-15763 15817 0
-335 -15763 15764 0
-15764 15818 0
-336 -15764 15765 0
-15765 15819 0
-337 -15765 15766 0
-15766 15820 0
-338 -15766 15767 0
-15767 15821 0
-339 -15767 0
-286 15768 0
-15768 15822 0
-287 -15768 15769 0
-15769 15823 0
-288 -15769 15770 0
-15770 15824 0
-289 -15770 15771 0
-15771 15825 0
-290 -15771 15772 0
-15772 15826 0
-291 -15772 15773 0
-15773 15827 0
-292 -15773 15774 0
-15774 15828 0
-293 -15774 15775 0
-15775 15829 0
-294 -15775 15776 0
-15776 15830 0
-295 -15776 15777 0
-15777 15831 0
-296 -15777 15778 0
-15778 15832 0
-297 -15778 15779 0
-15779 15833 0
-298 -15779 15780 0
-15780 15834 0
-299 -15780 15781 0
-15781 15835 0
-300 -15781 15782 0
-15782 15836 0
-301 -15782 15783 0
-15783 15837 0
-302 -15783 15784 0
-15784 15838 0
-303 -15784 15785 0
-15785 15839 0
-304 -15785 15786 0
-15786 15840 0
-305 -15786 15787 0
-15787 15841 0
-306 -15787 15788 0
-15788 15842 0
-307 -15788 15789 0
-15789 15843 0
-308 -15789 15790 0
-15790 15844 0
-309 -15790 15791 0
-15791 15845 0
-310 -15791 15792 0
-15792 15846 0
-311 -15792 15793 0
-15793 15847 0
-312 -15793 15794 0
-15794 15848 0
-313 -15794 15795 0
-15795 15849 0
-314 -15795 15796 0
-15796 15850 0
-315 -15796 15797 0
-15797 15851 0
-316 -15797 15798 0
-15798 15852 0
-317 -15798 15799 0
-15799 15853 0
-318 -15799 15800 0
-15800 15854 0
-319 -15800 15801 0
-15801 15855 0
-320 -15801 15802 0
-15802 15856 0
-321 -15802 15803 0
-15803 15857 0
-322 -15803 15804 0
-15804 15858 0
-323 -15804 15805 0
-15805 15859 0
-324 -15805 15806 0
-15806 15860 0
-325 -15806 15807 0
-15807 15861 0
-326 -15807 15808 0
-15808 15862 0
-327 -15808 15809 0
-15809 15863 0
-328 -15809 15810 0
-15810 15864 0
-329 -15810 15811 0
-15811 15865 0
-330 -15811 15812 0
-15812 15866 0
-331 -15812 15813 0
-15813 15867 0
-332 -15813 15814 0
-15814 15868 0
-333 -15814 15815 0
-15815 15869 0
-334 -15815 15816 0
-15816 15870 0
-335 -15816 15817 0
-15817 15871 0
-336 -15817 15818 0
-15818 15872 0
-337 -15818 15819 0
-15819 15873 0
-338 -15819 15820 0
-15820 15874 0
-339 -15820 15821 0
-15821 15875 0
-340 -15821 0
-287 15822 0
-15822 15876 0
-288 -15822 15823 0
-15823 15877 0
-289 -15823 15824 0
-15824 15878 0
-290 -15824 15825 0
-15825 15879 0
-291 -15825 15826 0
-15826 15880 0
-292 -15826 15827 0
-15827 15881 0
-293 -15827 15828 0
-15828 15882 0
-294 -15828 15829 0
-15829 15883 0
-295 -15829 15830 0
-15830 15884 0
-296 -15830 15831 0
-15831 15885 0
-297 -15831 15832 0
-15832 15886 0
-298 -15832 15833 0
-15833 15887 0
-299 -15833 15834 0
-15834 15888 0
-300 -15834 15835 0
-15835 15889 0
-301 -15835 15836 0
-15836 15890 0
-302 -15836 15837 0
-15837 15891 0
-303 -15837 15838 0
-15838 15892 0
-304 -15838 15839 0
-15839 15893 0
-305 -15839 15840 0
-15840 15894 0
-306 -15840 15841 0
-15841 15895 0
-307 -15841 15842 0
-15842 15896 0
-308 -15842 15843 0
-15843 15897 0
-309 -15843 15844 0
-15844 15898 0
-310 -15844 15845 0
-15845 15899 0
-311 -15845 15846 0
-15846 15900 0
-312 -15846 15847 0
-15847 15901 0
-313 -15847 15848 0
-15848 15902 0
-314 -15848 15849 0
-15849 15903 0
-315 -15849 15850 0
-15850 15904 0
-316 -15850 15851 0
-15851 15905 0
-317 -15851 15852 0
-15852 15906 0
-318 -15852 15853 0
-15853 15907 0
-319 -15853 15854 0
-15854 15908 0
-320 -15854 15855 0
-15855 15909 0
-321 -15855 15856 0
-15856 15910 0
-322 -15856 15857 0
-15857 15911 0
-323 -15857 15858 0
-15858 15912 0
-324 -15858 15859 0
-15859 15913 0
-325 -15859 15860 0
-15860 15914 0
-326 -15860 15861 0
-15861 15915 0
-327 -15861 15862 0
-15862 15916 0
-328 -15862 15863 0
-15863 15917 0
-329 -15863 15864 0
-15864 15918 0
-330 -15864 15865 0
-15865 15919 0
-331 -15865 15866 0
-15866 15920 0
-332 -15866 15867 0
-15867 15921 0
-333 -15867 15868 0
-15868 15922 0
-334 -15868 15869 0
-15869 15923 0
-335 -15869 15870 0
-15870 15924 0
-336 -15870 15871 0
-15871 15925 0
-337 -15871 15872 0
-15872 15926 0
-338 -15872 15873 0
-15873 15927 0
-339 -15873 15874 0
-15874 15928 0
-340 -15874 15875 0
-15875 15929 0
-341 -15875 0
-288 15876 0
-15876 15930 0
-289 -15876 15877 0
-15877 15931 0
-290 -15877 15878 0
-15878 15932 0
-291 -15878 15879 0
-15879 15933 0
-292 -15879 15880 0
-15880 15934 0
-293 -15880 15881 0
-15881 15935 0
-294 -15881 15882 0
-15882 15936 0
-295 -15882 15883 0
-15883 15937 0
-296 -15883 15884 0
-15884 15938 0
-297 -15884 15885 0
-15885 15939 0
-298 -15885 15886 0
-15886 15940 0
-299 -15886 15887 0
-15887 15941 0
-300 -15887 15888 0
-15888 15942 0
-301 -15888 15889 0
-15889 15943 0
-302 -15889 15890 0
-15890 15944 0
-303 -15890 15891 0
-15891 15945 0
-304 -15891 15892 0
-15892 15946 0
-305 -15892 15893 0
-15893 15947 0
-306 -15893 15894 0
-15894 15948 0
-307 -15894 15895 0
-15895 15949 0
-308 -15895 15896 0
-15896 15950 0
-309 -15896 15897 0
-15897 15951 0
-310 -15897 15898 0
-15898 15952 0
-311 -15898 15899 0
-15899 15953 0
-312 -15899 15900 0
-15900 15954 0
-313 -15900 15901 0
-15901 15955 0
-314 -15901 15902 0
-15902 15956 0
-315 -15902 15903 0
-15903 15957 0
-316 -15903 15904 0
-15904 15958 0
-317 -15904 15905 0
-15905 15959 0
-318 -15905 15906 0
-15906 15960 0
-319 -15906 15907 0
-15907 15961 0
-320 -15907 15908 0
-15908 15962 0
-321 -15908 15909 0
-15909 15963 0
-322 -15909 15910 0
-15910 15964 0
-323 -15910 15911 0
-15911 15965 0
-324 -15911 15912 0
-15912 15966 0
-325 -15912 15913 0
-15913 15967 0
-326 -15913 15914 0
-15914 15968 0
-327 -15914 15915 0
-15915 15969 0
-328 -15915 15916 0
-15916 15970 0
-329 -15916 15917 0
-15917 15971 0
-330 -15917 15918 0
-15918 15972 0
-331 -15918 15919 0
-15919 15973 0
-332 -15919 15920 0
-15920 15974 0
-333 -15920 15921 0
-15921 15975 0
-334 -15921 15922 0
-15922 15976 0
-335 -15922 15923 0
-15923 15977 0
-336 -15923 15924 0
-15924 15978 0
-337 -15924 15925 0
-15925 15979 0
-338 -15925 15926 0
-15926 15980 0
-339 -15926 15927 0
-15927 15981 0
-340 -15927 15928 0
-15928 15982 0
-341 -15928 15929 0
-15929 15983 0
-342 -15929 0
-289 15930 0
-15930 15984 0
-290 -15930 15931 0
-15931 15985 0
-291 -15931 15932 0
-15932 15986 0
-292 -15932 15933 0
-15933 15987 0
-293 -15933 15934 0
-15934 15988 0
-294 -15934 15935 0
-15935 15989 0
-295 -15935 15936 0
-15936 15990 0
-296 -15936 15937 0
-15937 15991 0
-297 -15937 15938 0
-15938 15992 0
-298 -15938 15939 0
-15939 15993 0
-299 -15939 15940 0
-15940 15994 0
-300 -15940 15941 0
-15941 15995 0
-301 -15941 15942 0
-15942 15996 0
-302 -15942 15943 0
-15943 15997 0
-303 -15943 15944 0
-15944 15998 0
-304 -15944 15945 0
-15945 15999 0
-305 -15945 15946 0
-15946 16000 0
-306 -15946 15947 0
-15947 16001 0
-307 -15947 15948 0
-15948 16002 0
-308 -15948 15949 0
-15949 16003 0
-309 -15949 15950 0
-15950 16004 0
-310 -15950 15951 0
-15951 16005 0
-311 -15951 15952 0
-15952 16006 0
-312 -15952 15953 0
-15953 16007 0
-313 -15953 15954 0
-15954 16008 0
-314 -15954 15955 0
-15955 16009 0
-315 -15955 15956 0
-15956 16010 0
-316 -15956 15957 0
-15957 16011 0
-317 -15957 15958 0
-15958 16012 0
-318 -15958 15959 0
-15959 16013 0
-319 -15959 15960 0
-15960 16014 0
-320 -15960 15961 0
-15961 16015 0
-321 -15961 15962 0
-15962 16016 0
-322 -15962 15963 0
-15963 16017 0
-323 -15963 15964 0
-15964 16018 0
-324 -15964 15965 0
-15965 16019 0
-325 -15965 15966 0
-15966 16020 0
-326 -15966 15967 0
-15967 16021 0
-327 -15967 15968 0
-15968 16022 0
-328 -15968 15969 0
-15969 16023 0
-329 -15969 15970 0
-15970 16024 0
-330 -15970 15971 0
-15971 16025 0
-331 -15971 15972 0
-15972 16026 0
-332 -15972 15973 0
-15973 16027 0
-333 -15973 15974 0
-15974 16028 0
-334 -15974 15975 0
-15975 16029 0
-335 -15975 15976 0
-15976 16030 0
-336 -15976 15977 0
-15977 16031 0
-337 -15977 15978 0
-15978 16032 0
-338 -15978 15979 0
-15979 16033 0
-339 -15979 15980 0
-15980 16034 0
-340 -15980 15981 0
-15981 16035 0
-341 -15981 15982 0
-15982 16036 0
-342 -15982 15983 0
-15983 16037 0
-343 -15983 0
-290 15984 0
-15984 16038 0
-291 -15984 15985 0
-15985 16039 0
-292 -15985 15986 0
-15986 16040 0
-293 -15986 15987 0
-15987 16041 0
-294 -15987 15988 0
-15988 16042 0
-295 -15988 15989 0
-15989 16043 0
-296 -15989 15990 0
-15990 16044 0
-297 -15990 15991 0
-15991 16045 0
-298 -15991 15992 0
-15992 16046 0
-299 -15992 15993 0
-15993 16047 0
-300 -15993 15994 0
-15994 16048 0
-301 -15994 15995 0
-15995 16049 0
-302 -15995 15996 0
-15996 16050 0
-303 -15996 15997 0
-15997 16051 0
-304 -15997 15998 0
-15998 16052 0
-305 -15998 15999 0
-15999 16053 0
-306 -15999 16000 0
-16000 16054 0
-307 -16000 16001 0
-16001 16055 0
-308 -16001 16002 0
-16002 16056 0
-309 -16002 16003 0
-16003 16057 0
-310 -16003 16004 0
-16004 16058 0
-311 -16004 16005 0
-16005 16059 0
-312 -16005 16006 0
-16006 16060 0
-313 -16006 16007 0
-16007 16061 0
-314 -16007 16008 0
-16008 16062 0
-315 -16008 16009 0
-16009 16063 0
-316 -16009 16010 0
-16010 16064 0
-317 -16010 16011 0
-16011 16065 0
-318 -16011 16012 0
-16012 16066 0
-319 -16012 16013 0
-16013 16067 0
-320 -16013 16014 0
-16014 16068 0
-321 -16014 16015 0
-16015 16069 0
-322 -16015 16016 0
-16016 16070 0
-323 -16016 16017 0
-16017 16071 0
-324 -16017 16018 0
-16018 16072 0
-325 -16018 16019 0
-16019 16073 0
-326 -16019 16020 0
-16020 16074 0
-327 -16020 16021 0
-16021 16075 0
-328 -16021 16022 0
-16022 16076 0
-329 -16022 16023 0
-16023 16077 0
-330 -16023 16024 0
-16024 16078 0
-331 -16024 16025 0
-16025 16079 0
-332 -16025 16026 0
-16026 16080 0
-333 -16026 16027 0
-16027 16081 0
-334 -16027 16028 0
-16028 16082 0
-335 -16028 16029 0
-16029 16083 0
-336 -16029 16030 0
-16030 16084 0
-337 -16030 16031 0
-16031 16085 0
-338 -16031 16032 0
-16032 16086 0
-339 -16032 16033 0
-16033 16087 0
-340 -16033 16034 0
-16034 16088 0
-341 -16034 16035 0
-16035 16089 0
-342 -16035 16036 0
-16036 16090 0
-343 -16036 16037 0
-16037 16091 0
-344 -16037 0
-291 16038 0
-16038 16092 0
-292 -16038 16039 0
-16039 16093 0
-293 -16039 16040 0
-16040 16094 0
-294 -16040 16041 0
-16041 16095 0
-295 -16041 16042 0
-16042 16096 0
-296 -16042 16043 0
-16043 16097 0
-297 -16043 16044 0
-16044 16098 0
-298 -16044 16045 0
-16045 16099 0
-299 -16045 16046 0
-16046 16100 0
-300 -16046 16047 0
-16047 16101 0
-301 -16047 16048 0
-16048 16102 0
-302 -16048 16049 0
-16049 16103 0
-303 -16049 16050 0
-16050 16104 0
-304 -16050 16051 0
-16051 16105 0
-305 -16051 16052 0
-16052 16106 0
-306 -16052 16053 0
-16053 16107 0
-307 -16053 16054 0
-16054 16108 0
-308 -16054 16055 0
-16055 16109 0
-309 -16055 16056 0
-16056 16110 0
-310 -16056 16057 0
-16057 16111 0
-311 -16057 16058 0
-16058 16112 0
-312 -16058 16059 0
-16059 16113 0
-313 -16059 16060 0
-16060 16114 0
-314 -16060 16061 0
-16061 16115 0
-315 -16061 16062 0
-16062 16116 0
-316 -16062 16063 0
-16063 16117 0
-317 -16063 16064 0
-16064 16118 0
-318 -16064 16065 0
-16065 16119 0
-319 -16065 16066 0
-16066 16120 0
-320 -16066 16067 0
-16067 16121 0
-321 -16067 16068 0
-16068 16122 0
-322 -16068 16069 0
-16069 16123 0
-323 -16069 16070 0
-16070 16124 0
-324 -16070 16071 0
-16071 16125 0
-325 -16071 16072 0
-16072 16126 0
-326 -16072 16073 0
-16073 16127 0
-327 -16073 16074 0
-16074 16128 0
-328 -16074 16075 0
-16075 16129 0
-329 -16075 16076 0
-16076 16130 0
-330 -16076 16077 0
-16077 16131 0
-331 -16077 16078 0
-16078 16132 0
-332 -16078 16079 0
-16079 16133 0
-333 -16079 16080 0
-16080 16134 0
-334 -16080 16081 0
-16081 16135 0
-335 -16081 16082 0
-16082 16136 0
-336 -16082 16083 0
-16083 16137 0
-337 -16083 16084 0
-16084 16138 0
-338 -16084 16085 0
-16085 16139 0
-339 -16085 16086 0
-16086 16140 0
-340 -16086 16087 0
-16087 16141 0
-341 -16087 16088 0
-16088 16142 0
-342 -16088 16089 0
-16089 16143 0
-343 -16089 16090 0
-16090 16144 0
-344 -16090 16091 0
-16091 16145 0
-345 -16091 0
-292 16092 0
-16092 16146 0
-293 -16092 16093 0
-16093 16147 0
-294 -16093 16094 0
-16094 16148 0
-295 -16094 16095 0
-16095 16149 0
-296 -16095 16096 0
-16096 16150 0
-297 -16096 16097 0
-16097 16151 0
-298 -16097 16098 0
-16098 16152 0
-299 -16098 16099 0
-16099 16153 0
-300 -16099 16100 0
-16100 16154 0
-301 -16100 16101 0
-16101 16155 0
-302 -16101 16102 0
-16102 16156 0
-303 -16102 16103 0
-16103 16157 0
-304 -16103 16104 0
-16104 16158 0
-305 -16104 16105 0
-16105 16159 0
-306 -16105 16106 0
-16106 16160 0
-307 -16106 16107 0
-16107 16161 0
-308 -16107 16108 0
-16108 16162 0
-309 -16108 16109 0
-16109 16163 0
-310 -16109 16110 0
-16110 16164 0
-311 -16110 16111 0
-16111 16165 0
-312 -16111 16112 0
-16112 16166 0
-313 -16112 16113 0
-16113 16167 0
-314 -16113 16114 0
-16114 16168 0
-315 -16114 16115 0
-16115 16169 0
-316 -16115 16116 0
-16116 16170 0
-317 -16116 16117 0
-16117 16171 0
-318 -16117 16118 0
-16118 16172 0
-319 -16118 16119 0
-16119 16173 0
-320 -16119 16120 0
-16120 16174 0
-321 -16120 16121 0
-16121 16175 0
-322 -16121 16122 0
-16122 16176 0
-323 -16122 16123 0
-16123 16177 0
-324 -16123 16124 0
-16124 16178 0
-325 -16124 16125 0
-16125 16179 0
-326 -16125 16126 0
-16126 16180 0
-327 -16126 16127 0
-16127 16181 0
-328 -16127 16128 0
-16128 16182 0
-329 -16128 16129 0
-16129 16183 0
-330 -16129 16130 0
-16130 16184 0
-331 -16130 16131 0
-16131 16185 0
-332 -16131 16132 0
-16132 16186 0
-333 -16132 16133 0
-16133 16187 0
-334 -16133 16134 0
-16134 16188 0
-335 -16134 16135 0
-16135 16189 0
-336 -16135 16136 0
-16136 16190 0
-337 -16136 16137 0
-16137 16191 0
-338 -16137 16138 0
-16138 16192 0
-339 -16138 16139 0
-16139 16193 0
-340 -16139 16140 0
-16140 16194 0
-341 -16140 16141 0
-16141 16195 0
-342 -16141 16142 0
-16142 16196 0
-343 -16142 16143 0
-16143 16197 0
-344 -16143 16144 0
-16144 16198 0
-345 -16144 16145 0
-16145 16199 0
-346 -16145 0
-293 16146 0
-16146 16200 0
-294 -16146 16147 0
-16147 16201 0
-295 -16147 16148 0
-16148 16202 0
-296 -16148 16149 0
-16149 16203 0
-297 -16149 16150 0
-16150 16204 0
-298 -16150 16151 0
-16151 16205 0
-299 -16151 16152 0
-16152 16206 0
-300 -16152 16153 0
-16153 16207 0
-301 -16153 16154 0
-16154 16208 0
-302 -16154 16155 0
-16155 16209 0
-303 -16155 16156 0
-16156 16210 0
-304 -16156 16157 0
-16157 16211 0
-305 -16157 16158 0
-16158 16212 0
-306 -16158 16159 0
-16159 16213 0
-307 -16159 16160 0
-16160 16214 0
-308 -16160 16161 0
-16161 16215 0
-309 -16161 16162 0
-16162 16216 0
-310 -16162 16163 0
-16163 16217 0
-311 -16163 16164 0
-16164 16218 0
-312 -16164 16165 0
-16165 16219 0
-313 -16165 16166 0
-16166 16220 0
-314 -16166 16167 0
-16167 16221 0
-315 -16167 16168 0
-16168 16222 0
-316 -16168 16169 0
-16169 16223 0
-317 -16169 16170 0
-16170 16224 0
-318 -16170 16171 0
-16171 16225 0
-319 -16171 16172 0
-16172 16226 0
-320 -16172 16173 0
-16173 16227 0
-321 -16173 16174 0
-16174 16228 0
-322 -16174 16175 0
-16175 16229 0
-323 -16175 16176 0
-16176 16230 0
-324 -16176 16177 0
-16177 16231 0
-325 -16177 16178 0
-16178 16232 0
-326 -16178 16179 0
-16179 16233 0
-327 -16179 16180 0
-16180 16234 0
-328 -16180 16181 0
-16181 16235 0
-329 -16181 16182 0
-16182 16236 0
-330 -16182 16183 0
-16183 16237 0
-331 -16183 16184 0
-16184 16238 0
-332 -16184 16185 0
-16185 16239 0
-333 -16185 16186 0
-16186 16240 0
-334 -16186 16187 0
-16187 16241 0
-335 -16187 16188 0
-16188 16242 0
-336 -16188 16189 0
-16189 16243 0
-337 -16189 16190 0
-16190 16244 0
-338 -16190 16191 0
-16191 16245 0
-339 -16191 16192 0
-16192 16246 0
-340 -16192 16193 0
-16193 16247 0
-341 -16193 16194 0
-16194 16248 0
-342 -16194 16195 0
-16195 16249 0
-343 -16195 16196 0
-16196 16250 0
-344 -16196 16197 0
-16197 16251 0
-345 -16197 16198 0
-16198 16252 0
-346 -16198 16199 0
-16199 16253 0
-347 -16199 0
-294 16200 0
-16200 16254 0
-295 -16200 16201 0
-16201 16255 0
-296 -16201 16202 0
-16202 16256 0
-297 -16202 16203 0
-16203 16257 0
-298 -16203 16204 0
-16204 16258 0
-299 -16204 16205 0
-16205 16259 0
-300 -16205 16206 0
-16206 16260 0
-301 -16206 16207 0
-16207 16261 0
-302 -16207 16208 0
-16208 16262 0
-303 -16208 16209 0
-16209 16263 0
-304 -16209 16210 0
-16210 16264 0
-305 -16210 16211 0
-16211 16265 0
-306 -16211 16212 0
-16212 16266 0
-307 -16212 16213 0
-16213 16267 0
-308 -16213 16214 0
-16214 16268 0
-309 -16214 16215 0
-16215 16269 0
-310 -16215 16216 0
-16216 16270 0
-311 -16216 16217 0
-16217 16271 0
-312 -16217 16218 0
-16218 16272 0
-313 -16218 16219 0
-16219 16273 0
-314 -16219 16220 0
-16220 16274 0
-315 -16220 16221 0
-16221 16275 0
-316 -16221 16222 0
-16222 16276 0
-317 -16222 16223 0
-16223 16277 0
-318 -16223 16224 0
-16224 16278 0
-319 -16224 16225 0
-16225 16279 0
-320 -16225 16226 0
-16226 16280 0
-321 -16226 16227 0
-16227 16281 0
-322 -16227 16228 0
-16228 16282 0
-323 -16228 16229 0
-16229 16283 0
-324 -16229 16230 0
-16230 16284 0
-325 -16230 16231 0
-16231 16285 0
-326 -16231 16232 0
-16232 16286 0
-327 -16232 16233 0
-16233 16287 0
-328 -16233 16234 0
-16234 16288 0
-329 -16234 16235 0
-16235 16289 0
-330 -16235 16236 0
-16236 16290 0
-331 -16236 16237 0
-16237 16291 0
-332 -16237 16238 0
-16238 16292 0
-333 -16238 16239 0
-16239 16293 0
-334 -16239 16240 0
-16240 16294 0
-335 -16240 16241 0
-16241 16295 0
-336 -16241 16242 0
-16242 16296 0
-337 -16242 16243 0
-16243 16297 0
-338 -16243 16244 0
-16244 16298 0
-339 -16244 16245 0
-16245 16299 0
-340 -16245 16246 0
-16246 16300 0
-341 -16246 16247 0
-16247 16301 0
-342 -16247 16248 0
-16248 16302 0
-343 -16248 16249 0
-16249 16303 0
-344 -16249 16250 0
-16250 16304 0
-345 -16250 16251 0
-16251 16305 0
-346 -16251 16252 0
-16252 16306 0
-347 -16252 16253 0
-16253 16307 0
-348 -16253 0
-295 16254 0
-16254 16308 0
-296 -16254 16255 0
-16255 16309 0
-297 -16255 16256 0
-16256 16310 0
-298 -16256 16257 0
-16257 16311 0
-299 -16257 16258 0
-16258 16312 0
-300 -16258 16259 0
-16259 16313 0
-301 -16259 16260 0
-16260 16314 0
-302 -16260 16261 0
-16261 16315 0
-303 -16261 16262 0
-16262 16316 0
-304 -16262 16263 0
-16263 16317 0
-305 -16263 16264 0
-16264 16318 0
-306 -16264 16265 0
-16265 16319 0
-307 -16265 16266 0
-16266 16320 0
-308 -16266 16267 0
-16267 16321 0
-309 -16267 16268 0
-16268 16322 0
-310 -16268 16269 0
-16269 16323 0
-311 -16269 16270 0
-16270 16324 0
-312 -16270 16271 0
-16271 16325 0
-313 -16271 16272 0
-16272 16326 0
-314 -16272 16273 0
-16273 16327 0
-315 -16273 16274 0
-16274 16328 0
-316 -16274 16275 0
-16275 16329 0
-317 -16275 16276 0
-16276 16330 0
-318 -16276 16277 0
-16277 16331 0
-319 -16277 16278 0
-16278 16332 0
-320 -16278 16279 0
-16279 16333 0
-321 -16279 16280 0
-16280 16334 0
-322 -16280 16281 0
-16281 16335 0
-323 -16281 16282 0
-16282 16336 0
-324 -16282 16283 0
-16283 16337 0
-325 -16283 16284 0
-16284 16338 0
-326 -16284 16285 0
-16285 16339 0
-327 -16285 16286 0
-16286 16340 0
-328 -16286 16287 0
-16287 16341 0
-329 -16287 16288 0
-16288 16342 0
-330 -16288 16289 0
-16289 16343 0
-331 -16289 16290 0
-16290 16344 0
-332 -16290 16291 0
-16291 16345 0
-333 -16291 16292 0
-16292 16346 0
-334 -16292 16293 0
-16293 16347 0
-335 -16293 16294 0
-16294 16348 0
-336 -16294 16295 0
-16295 16349 0
-337 -16295 16296 0
-16296 16350 0
-338 -16296 16297 0
-16297 16351 0
-339 -16297 16298 0
-16298 16352 0
-340 -16298 16299 0
-16299 16353 0
-341 -16299 16300 0
-16300 16354 0
-342 -16300 16301 0
-16301 16355 0
-343 -16301 16302 0
-16302 16356 0
-344 -16302 16303 0
-16303 16357 0
-345 -16303 16304 0
-16304 16358 0
-346 -16304 16305 0
-16305 16359 0
-347 -16305 16306 0
-16306 16360 0
-348 -16306 16307 0
-16307 16361 0
-349 -16307 0
-296 16308 0
-16308 16362 0
-297 -16308 16309 0
-16309 16363 0
-298 -16309 16310 0
-16310 16364 0
-299 -16310 16311 0
-16311 16365 0
-300 -16311 16312 0
-16312 16366 0
-301 -16312 16313 0
-16313 16367 0
-302 -16313 16314 0
-16314 16368 0
-303 -16314 16315 0
-16315 16369 0
-304 -16315 16316 0
-16316 16370 0
-305 -16316 16317 0
-16317 16371 0
-306 -16317 16318 0
-16318 16372 0
-307 -16318 16319 0
-16319 16373 0
-308 -16319 16320 0
-16320 16374 0
-309 -16320 16321 0
-16321 16375 0
-310 -16321 16322 0
-16322 16376 0
-311 -16322 16323 0
-16323 16377 0
-312 -16323 16324 0
-16324 16378 0
-313 -16324 16325 0
-16325 16379 0
-314 -16325 16326 0
-16326 16380 0
-315 -16326 16327 0
-16327 16381 0
-316 -16327 16328 0
-16328 16382 0
-317 -16328 16329 0
-16329 16383 0
-318 -16329 16330 0
-16330 16384 0
-319 -16330 16331 0
-16331 16385 0
-320 -16331 16332 0
-16332 16386 0
-321 -16332 16333 0
-16333 16387 0
-322 -16333 16334 0
-16334 16388 0
-323 -16334 16335 0
-16335 16389 0
-324 -16335 16336 0
-16336 16390 0
-325 -16336 16337 0
-16337 16391 0
-326 -16337 16338 0
-16338 16392 0
-327 -16338 16339 0
-16339 16393 0
-328 -16339 16340 0
-16340 16394 0
-329 -16340 16341 0
-16341 16395 0
-330 -16341 16342 0
-16342 16396 0
-331 -16342 16343 0
-16343 16397 0
-332 -16343 16344 0
-16344 16398 0
-333 -16344 16345 0
-16345 16399 0
-334 -16345 16346 0
-16346 16400 0
-335 -16346 16347 0
-16347 16401 0
-336 -16347 16348 0
-16348 16402 0
-337 -16348 16349 0
-16349 16403 0
-338 -16349 16350 0
-16350 16404 0
-339 -16350 16351 0
-16351 16405 0
-340 -16351 16352 0
-16352 16406 0
-341 -16352 16353 0
-16353 16407 0
-342 -16353 16354 0
-16354 16408 0
-343 -16354 16355 0
-16355 16409 0
-344 -16355 16356 0
-16356 16410 0
-345 -16356 16357 0
-16357 16411 0
-346 -16357 16358 0
-16358 16412 0
-347 -16358 16359 0
-16359 16413 0
-348 -16359 16360 0
-16360 16414 0
-349 -16360 16361 0
-16361 16415 0
-350 -16361 0
-297 16362 0
-16362 16416 0
-298 -16362 16363 0
-16363 16417 0
-299 -16363 16364 0
-16364 16418 0
-300 -16364 16365 0
-16365 16419 0
-301 -16365 16366 0
-16366 16420 0
-302 -16366 16367 0
-16367 16421 0
-303 -16367 16368 0
-16368 16422 0
-304 -16368 16369 0
-16369 16423 0
-305 -16369 16370 0
-16370 16424 0
-306 -16370 16371 0
-16371 16425 0
-307 -16371 16372 0
-16372 16426 0
-308 -16372 16373 0
-16373 16427 0
-309 -16373 16374 0
-16374 16428 0
-310 -16374 16375 0
-16375 16429 0
-311 -16375 16376 0
-16376 16430 0
-312 -16376 16377 0
-16377 16431 0
-313 -16377 16378 0
-16378 16432 0
-314 -16378 16379 0
-16379 16433 0
-315 -16379 16380 0
-16380 16434 0
-316 -16380 16381 0
-16381 16435 0
-317 -16381 16382 0
-16382 16436 0
-318 -16382 16383 0
-16383 16437 0
-319 -16383 16384 0
-16384 16438 0
-320 -16384 16385 0
-16385 16439 0
-321 -16385 16386 0
-16386 16440 0
-322 -16386 16387 0
-16387 16441 0
-323 -16387 16388 0
-16388 16442 0
-324 -16388 16389 0
-16389 16443 0
-325 -16389 16390 0
-16390 16444 0
-326 -16390 16391 0
-16391 16445 0
-327 -16391 16392 0
-16392 16446 0
-328 -16392 16393 0
-16393 16447 0
-329 -16393 16394 0
-16394 16448 0
-330 -16394 16395 0
-16395 16449 0
-331 -16395 16396 0
-16396 16450 0
-332 -16396 16397 0
-16397 16451 0
-333 -16397 16398 0
-16398 16452 0
-334 -16398 16399 0
-16399 16453 0
-335 -16399 16400 0
-16400 16454 0
-336 -16400 16401 0
-16401 16455 0
-337 -16401 16402 0
-16402 16456 0
-338 -16402 16403 0
-16403 16457 0
-339 -16403 16404 0
-16404 16458 0
-340 -16404 16405 0
-16405 16459 0
-341 -16405 16406 0
-16406 16460 0
-342 -16406 16407 0
-16407 16461 0
-343 -16407 16408 0
-16408 16462 0
-344 -16408 16409 0
-16409 16463 0
-345 -16409 16410 0
-16410 16464 0
-346 -16410 16411 0
-16411 16465 0
-347 -16411 16412 0
-16412 16466 0
-348 -16412 16413 0
-16413 16467 0
-349 -16413 16414 0
-16414 16468 0
-350 -16414 16415 0
-16415 16469 0
-351 -16415 0
-298 16416 0
-16416 16470 0
-299 -16416 16417 0
-16417 16471 0
-300 -16417 16418 0
-16418 16472 0
-301 -16418 16419 0
-16419 16473 0
-302 -16419 16420 0
-16420 16474 0
-303 -16420 16421 0
-16421 16475 0
-304 -16421 16422 0
-16422 16476 0
-305 -16422 16423 0
-16423 16477 0
-306 -16423 16424 0
-16424 16478 0
-307 -16424 16425 0
-16425 16479 0
-308 -16425 16426 0
-16426 16480 0
-309 -16426 16427 0
-16427 16481 0
-310 -16427 16428 0
-16428 16482 0
-311 -16428 16429 0
-16429 16483 0
-312 -16429 16430 0
-16430 16484 0
-313 -16430 16431 0
-16431 16485 0
-314 -16431 16432 0
-16432 16486 0
-315 -16432 16433 0
-16433 16487 0
-316 -16433 16434 0
-16434 16488 0
-317 -16434 16435 0
-16435 16489 0
-318 -16435 16436 0
-16436 16490 0
-319 -16436 16437 0
-16437 16491 0
-320 -16437 16438 0
-16438 16492 0
-321 -16438 16439 0
-16439 16493 0
-322 -16439 16440 0
-16440 16494 0
-323 -16440 16441 0
-16441 16495 0
-324 -16441 16442 0
-16442 16496 0
-325 -16442 16443 0
-16443 16497 0
-326 -16443 16444 0
-16444 16498 0
-327 -16444 16445 0
-16445 16499 0
-328 -16445 16446 0
-16446 16500 0
-329 -16446 16447 0
-16447 16501 0
-330 -16447 16448 0
-16448 16502 0
-331 -16448 16449 0
-16449 16503 0
-332 -16449 16450 0
-16450 16504 0
-333 -16450 16451 0
-16451 16505 0
-334 -16451 16452 0
-16452 16506 0
-335 -16452 16453 0
-16453 16507 0
-336 -16453 16454 0
-16454 16508 0
-337 -16454 16455 0
-16455 16509 0
-338 -16455 16456 0
-16456 16510 0
-339 -16456 16457 0
-16457 16511 0
-340 -16457 16458 0
-16458 16512 0
-341 -16458 16459 0
-16459 16513 0
-342 -16459 16460 0
-16460 16514 0
-343 -16460 16461 0
-16461 16515 0
-344 -16461 16462 0
-16462 16516 0
-345 -16462 16463 0
-16463 16517 0
-346 -16463 16464 0
-16464 16518 0
-347 -16464 16465 0
-16465 16519 0
-348 -16465 16466 0
-16466 16520 0
-349 -16466 16467 0
-16467 16521 0
-350 -16467 16468 0
-16468 16522 0
-351 -16468 16469 0
-16469 16523 0
-352 -16469 0
-299 16470 0
-16470 16524 0
-300 -16470 16471 0
-16471 16525 0
-301 -16471 16472 0
-16472 16526 0
-302 -16472 16473 0
-16473 16527 0
-303 -16473 16474 0
-16474 16528 0
-304 -16474 16475 0
-16475 16529 0
-305 -16475 16476 0
-16476 16530 0
-306 -16476 16477 0
-16477 16531 0
-307 -16477 16478 0
-16478 16532 0
-308 -16478 16479 0
-16479 16533 0
-309 -16479 16480 0
-16480 16534 0
-310 -16480 16481 0
-16481 16535 0
-311 -16481 16482 0
-16482 16536 0
-312 -16482 16483 0
-16483 16537 0
-313 -16483 16484 0
-16484 16538 0
-314 -16484 16485 0
-16485 16539 0
-315 -16485 16486 0
-16486 16540 0
-316 -16486 16487 0
-16487 16541 0
-317 -16487 16488 0
-16488 16542 0
-318 -16488 16489 0
-16489 16543 0
-319 -16489 16490 0
-16490 16544 0
-320 -16490 16491 0
-16491 16545 0
-321 -16491 16492 0
-16492 16546 0
-322 -16492 16493 0
-16493 16547 0
-323 -16493 16494 0
-16494 16548 0
-324 -16494 16495 0
-16495 16549 0
-325 -16495 16496 0
-16496 16550 0
-326 -16496 16497 0
-16497 16551 0
-327 -16497 16498 0
-16498 16552 0
-328 -16498 16499 0
-16499 16553 0
-329 -16499 16500 0
-16500 16554 0
-330 -16500 16501 0
-16501 16555 0
-331 -16501 16502 0
-16502 16556 0
-332 -16502 16503 0
-16503 16557 0
-333 -16503 16504 0
-16504 16558 0
-334 -16504 16505 0
-16505 16559 0
-335 -16505 16506 0
-16506 16560 0
-336 -16506 16507 0
-16507 16561 0
-337 -16507 16508 0
-16508 16562 0
-338 -16508 16509 0
-16509 16563 0
-339 -16509 16510 0
-16510 16564 0
-340 -16510 16511 0
-16511 16565 0
-341 -16511 16512 0
-16512 16566 0
-342 -16512 16513 0
-16513 16567 0
-343 -16513 16514 0
-16514 16568 0
-344 -16514 16515 0
-16515 16569 0
-345 -16515 16516 0
-16516 16570 0
-346 -16516 16517 0
-16517 16571 0
-347 -16517 16518 0
-16518 16572 0
-348 -16518 16519 0
-16519 16573 0
-349 -16519 16520 0
-16520 16574 0
-350 -16520 16521 0
-16521 16575 0
-351 -16521 16522 0
-16522 16576 0
-352 -16522 16523 0
-16523 16577 0
-353 -16523 0
-300 16524 0
-16524 16578 0
-301 -16524 16525 0
-16525 16579 0
-302 -16525 16526 0
-16526 16580 0
-303 -16526 16527 0
-16527 16581 0
-304 -16527 16528 0
-16528 16582 0
-305 -16528 16529 0
-16529 16583 0
-306 -16529 16530 0
-16530 16584 0
-307 -16530 16531 0
-16531 16585 0
-308 -16531 16532 0
-16532 16586 0
-309 -16532 16533 0
-16533 16587 0
-310 -16533 16534 0
-16534 16588 0
-311 -16534 16535 0
-16535 16589 0
-312 -16535 16536 0
-16536 16590 0
-313 -16536 16537 0
-16537 16591 0
-314 -16537 16538 0
-16538 16592 0
-315 -16538 16539 0
-16539 16593 0
-316 -16539 16540 0
-16540 16594 0
-317 -16540 16541 0
-16541 16595 0
-318 -16541 16542 0
-16542 16596 0
-319 -16542 16543 0
-16543 16597 0
-320 -16543 16544 0
-16544 16598 0
-321 -16544 16545 0
-16545 16599 0
-322 -16545 16546 0
-16546 16600 0
-323 -16546 16547 0
-16547 16601 0
-324 -16547 16548 0
-16548 16602 0
-325 -16548 16549 0
-16549 16603 0
-326 -16549 16550 0
-16550 16604 0
-327 -16550 16551 0
-16551 16605 0
-328 -16551 16552 0
-16552 16606 0
-329 -16552 16553 0
-16553 16607 0
-330 -16553 16554 0
-16554 16608 0
-331 -16554 16555 0
-16555 16609 0
-332 -16555 16556 0
-16556 16610 0
-333 -16556 16557 0
-16557 16611 0
-334 -16557 16558 0
-16558 16612 0
-335 -16558 16559 0
-16559 16613 0
-336 -16559 16560 0
-16560 16614 0
-337 -16560 16561 0
-16561 16615 0
-338 -16561 16562 0
-16562 16616 0
-339 -16562 16563 0
-16563 16617 0
-340 -16563 16564 0
-16564 16618 0
-341 -16564 16565 0
-16565 16619 0
-342 -16565 16566 0
-16566 16620 0
-343 -16566 16567 0
-16567 16621 0
-344 -16567 16568 0
-16568 16622 0
-345 -16568 16569 0
-16569 16623 0
-346 -16569 16570 0
-16570 16624 0
-347 -16570 16571 0
-16571 16625 0
-348 -16571 16572 0
-16572 16626 0
-349 -16572 16573 0
-16573 16627 0
-350 -16573 16574 0
-16574 16628 0
-351 -16574 16575 0
-16575 16629 0
-352 -16575 16576 0
-16576 16630 0
-353 -16576 16577 0
-16577 16631 0
-354 -16577 0
-301 16578 0
-16578 16632 0
-302 -16578 16579 0
-16579 16633 0
-303 -16579 16580 0
-16580 16634 0
-304 -16580 16581 0
-16581 16635 0
-305 -16581 16582 0
-16582 16636 0
-306 -16582 16583 0
-16583 16637 0
-307 -16583 16584 0
-16584 16638 0
-308 -16584 16585 0
-16585 16639 0
-309 -16585 16586 0
-16586 16640 0
-310 -16586 16587 0
-16587 16641 0
-311 -16587 16588 0
-16588 16642 0
-312 -16588 16589 0
-16589 16643 0
-313 -16589 16590 0
-16590 16644 0
-314 -16590 16591 0
-16591 16645 0
-315 -16591 16592 0
-16592 16646 0
-316 -16592 16593 0
-16593 16647 0
-317 -16593 16594 0
-16594 16648 0
-318 -16594 16595 0
-16595 16649 0
-319 -16595 16596 0
-16596 16650 0
-320 -16596 16597 0
-16597 16651 0
-321 -16597 16598 0
-16598 16652 0
-322 -16598 16599 0
-16599 16653 0
-323 -16599 16600 0
-16600 16654 0
-324 -16600 16601 0
-16601 16655 0
-325 -16601 16602 0
-16602 16656 0
-326 -16602 16603 0
-16603 16657 0
-327 -16603 16604 0
-16604 16658 0
-328 -16604 16605 0
-16605 16659 0
-329 -16605 16606 0
-16606 16660 0
-330 -16606 16607 0
-16607 16661 0
-331 -16607 16608 0
-16608 16662 0
-332 -16608 16609 0
-16609 16663 0
-333 -16609 16610 0
-16610 16664 0
-334 -16610 16611 0
-16611 16665 0
-335 -16611 16612 0
-16612 16666 0
-336 -16612 16613 0
-16613 16667 0
-337 -16613 16614 0
-16614 16668 0
-338 -16614 16615 0
-16615 16669 0
-339 -16615 16616 0
-16616 16670 0
-340 -16616 16617 0
-16617 16671 0
-341 -16617 16618 0
-16618 16672 0
-342 -16618 16619 0
-16619 16673 0
-343 -16619 16620 0
-16620 16674 0
-344 -16620 16621 0
-16621 16675 0
-345 -16621 16622 0
-16622 16676 0
-346 -16622 16623 0
-16623 16677 0
-347 -16623 16624 0
-16624 16678 0
-348 -16624 16625 0
-16625 16679 0
-349 -16625 16626 0
-16626 16680 0
-350 -16626 16627 0
-16627 16681 0
-351 -16627 16628 0
-16628 16682 0
-352 -16628 16629 0
-16629 16683 0
-353 -16629 16630 0
-16630 16684 0
-354 -16630 16631 0
-16631 16685 0
-355 -16631 0
-302 16632 0
-16632 16686 0
-303 -16632 16633 0
-16633 16687 0
-304 -16633 16634 0
-16634 16688 0
-305 -16634 16635 0
-16635 16689 0
-306 -16635 16636 0
-16636 16690 0
-307 -16636 16637 0
-16637 16691 0
-308 -16637 16638 0
-16638 16692 0
-309 -16638 16639 0
-16639 16693 0
-310 -16639 16640 0
-16640 16694 0
-311 -16640 16641 0
-16641 16695 0
-312 -16641 16642 0
-16642 16696 0
-313 -16642 16643 0
-16643 16697 0
-314 -16643 16644 0
-16644 16698 0
-315 -16644 16645 0
-16645 16699 0
-316 -16645 16646 0
-16646 16700 0
-317 -16646 16647 0
-16647 16701 0
-318 -16647 16648 0
-16648 16702 0
-319 -16648 16649 0
-16649 16703 0
-320 -16649 16650 0
-16650 16704 0
-321 -16650 16651 0
-16651 16705 0
-322 -16651 16652 0
-16652 16706 0
-323 -16652 16653 0
-16653 16707 0
-324 -16653 16654 0
-16654 16708 0
-325 -16654 16655 0
-16655 16709 0
-326 -16655 16656 0
-16656 16710 0
-327 -16656 16657 0
-16657 16711 0
-328 -16657 16658 0
-16658 16712 0
-329 -16658 16659 0
-16659 16713 0
-330 -16659 16660 0
-16660 16714 0
-331 -16660 16661 0
-16661 16715 0
-332 -16661 16662 0
-16662 16716 0
-333 -16662 16663 0
-16663 16717 0
-334 -16663 16664 0
-16664 16718 0
-335 -16664 16665 0
-16665 16719 0
-336 -16665 16666 0
-16666 16720 0
-337 -16666 16667 0
-16667 16721 0
-338 -16667 16668 0
-16668 16722 0
-339 -16668 16669 0
-16669 16723 0
-340 -16669 16670 0
-16670 16724 0
-341 -16670 16671 0
-16671 16725 0
-342 -16671 16672 0
-16672 16726 0
-343 -16672 16673 0
-16673 16727 0
-344 -16673 16674 0
-16674 16728 0
-345 -16674 16675 0
-16675 16729 0
-346 -16675 16676 0
-16676 16730 0
-347 -16676 16677 0
-16677 16731 0
-348 -16677 16678 0
-16678 16732 0
-349 -16678 16679 0
-16679 16733 0
-350 -16679 16680 0
-16680 16734 0
-351 -16680 16681 0
-16681 16735 0
-352 -16681 16682 0
-16682 16736 0
-353 -16682 16683 0
-16683 16737 0
-354 -16683 16684 0
-16684 16738 0
-355 -16684 16685 0
-16685 16739 0
-356 -16685 0
-303 16686 0
-16686 16740 0
-304 -16686 16687 0
-16687 16741 0
-305 -16687 16688 0
-16688 16742 0
-306 -16688 16689 0
-16689 16743 0
-307 -16689 16690 0
-16690 16744 0
-308 -16690 16691 0
-16691 16745 0
-309 -16691 16692 0
-16692 16746 0
-310 -16692 16693 0
-16693 16747 0
-311 -16693 16694 0
-16694 16748 0
-312 -16694 16695 0
-16695 16749 0
-313 -16695 16696 0
-16696 16750 0
-314 -16696 16697 0
-16697 16751 0
-315 -16697 16698 0
-16698 16752 0
-316 -16698 16699 0
-16699 16753 0
-317 -16699 16700 0
-16700 16754 0
-318 -16700 16701 0
-16701 16755 0
-319 -16701 16702 0
-16702 16756 0
-320 -16702 16703 0
-16703 16757 0
-321 -16703 16704 0
-16704 16758 0
-322 -16704 16705 0
-16705 16759 0
-323 -16705 16706 0
-16706 16760 0
-324 -16706 16707 0
-16707 16761 0
-325 -16707 16708 0
-16708 16762 0
-326 -16708 16709 0
-16709 16763 0
-327 -16709 16710 0
-16710 16764 0
-328 -16710 16711 0
-16711 16765 0
-329 -16711 16712 0
-16712 16766 0
-330 -16712 16713 0
-16713 16767 0
-331 -16713 16714 0
-16714 16768 0
-332 -16714 16715 0
-16715 16769 0
-333 -16715 16716 0
-16716 16770 0
-334 -16716 16717 0
-16717 16771 0
-335 -16717 16718 0
-16718 16772 0
-336 -16718 16719 0
-16719 16773 0
-337 -16719 16720 0
-16720 16774 0
-338 -16720 16721 0
-16721 16775 0
-339 -16721 16722 0
-16722 16776 0
-340 -16722 16723 0
-16723 16777 0
-341 -16723 16724 0
-16724 16778 0
-342 -16724 16725 0
-16725 16779 0
-343 -16725 16726 0
-16726 16780 0
-344 -16726 16727 0
-16727 16781 0
-345 -16727 16728 0
-16728 16782 0
-346 -16728 16729 0
-16729 16783 0
-347 -16729 16730 0
-16730 16784 0
-348 -16730 16731 0
-16731 16785 0
-349 -16731 16732 0
-16732 16786 0
-350 -16732 16733 0
-16733 16787 0
-351 -16733 16734 0
-16734 16788 0
-352 -16734 16735 0
-16735 16789 0
-353 -16735 16736 0
-16736 16790 0
-354 -16736 16737 0
-16737 16791 0
-355 -16737 16738 0
-16738 16792 0
-356 -16738 16739 0
-16739 16793 0
-357 -16739 0
-304 16740 0
-16740 16794 0
-305 -16740 16741 0
-16741 16795 0
-306 -16741 16742 0
-16742 16796 0
-307 -16742 16743 0
-16743 16797 0
-308 -16743 16744 0
-16744 16798 0
-309 -16744 16745 0
-16745 16799 0
-310 -16745 16746 0
-16746 16800 0
-311 -16746 16747 0
-16747 16801 0
-312 -16747 16748 0
-16748 16802 0
-313 -16748 16749 0
-16749 16803 0
-314 -16749 16750 0
-16750 16804 0
-315 -16750 16751 0
-16751 16805 0
-316 -16751 16752 0
-16752 16806 0
-317 -16752 16753 0
-16753 16807 0
-318 -16753 16754 0
-16754 16808 0
-319 -16754 16755 0
-16755 16809 0
-320 -16755 16756 0
-16756 16810 0
-321 -16756 16757 0
-16757 16811 0
-322 -16757 16758 0
-16758 16812 0
-323 -16758 16759 0
-16759 16813 0
-324 -16759 16760 0
-16760 16814 0
-325 -16760 16761 0
-16761 16815 0
-326 -16761 16762 0
-16762 16816 0
-327 -16762 16763 0
-16763 16817 0
-328 -16763 16764 0
-16764 16818 0
-329 -16764 16765 0
-16765 16819 0
-330 -16765 16766 0
-16766 16820 0
-331 -16766 16767 0
-16767 16821 0
-332 -16767 16768 0
-16768 16822 0
-333 -16768 16769 0
-16769 16823 0
-334 -16769 16770 0
-16770 16824 0
-335 -16770 16771 0
-16771 16825 0
-336 -16771 16772 0
-16772 16826 0
-337 -16772 16773 0
-16773 16827 0
-338 -16773 16774 0
-16774 16828 0
-339 -16774 16775 0
-16775 16829 0
-340 -16775 16776 0
-16776 16830 0
-341 -16776 16777 0
-16777 16831 0
-342 -16777 16778 0
-16778 16832 0
-343 -16778 16779 0
-16779 16833 0
-344 -16779 16780 0
-16780 16834 0
-345 -16780 16781 0
-16781 16835 0
-346 -16781 16782 0
-16782 16836 0
-347 -16782 16783 0
-16783 16837 0
-348 -16783 16784 0
-16784 16838 0
-349 -16784 16785 0
-16785 16839 0
-350 -16785 16786 0
-16786 16840 0
-351 -16786 16787 0
-16787 16841 0
-352 -16787 16788 0
-16788 16842 0
-353 -16788 16789 0
-16789 16843 0
-354 -16789 16790 0
-16790 16844 0
-355 -16790 16791 0
-16791 16845 0
-356 -16791 16792 0
-16792 16846 0
-357 -16792 16793 0
-16793 16847 0
-358 -16793 0
-305 16794 0
-16794 16848 0
-306 -16794 16795 0
-16795 16849 0
-307 -16795 16796 0
-16796 16850 0
-308 -16796 16797 0
-16797 16851 0
-309 -16797 16798 0
-16798 16852 0
-310 -16798 16799 0
-16799 16853 0
-311 -16799 16800 0
-16800 16854 0
-312 -16800 16801 0
-16801 16855 0
-313 -16801 16802 0
-16802 16856 0
-314 -16802 16803 0
-16803 16857 0
-315 -16803 16804 0
-16804 16858 0
-316 -16804 16805 0
-16805 16859 0
-317 -16805 16806 0
-16806 16860 0
-318 -16806 16807 0
-16807 16861 0
-319 -16807 16808 0
-16808 16862 0
-320 -16808 16809 0
-16809 16863 0
-321 -16809 16810 0
-16810 16864 0
-322 -16810 16811 0
-16811 16865 0
-323 -16811 16812 0
-16812 16866 0
-324 -16812 16813 0
-16813 16867 0
-325 -16813 16814 0
-16814 16868 0
-326 -16814 16815 0
-16815 16869 0
-327 -16815 16816 0
-16816 16870 0
-328 -16816 16817 0
-16817 16871 0
-329 -16817 16818 0
-16818 16872 0
-330 -16818 16819 0
-16819 16873 0
-331 -16819 16820 0
-16820 16874 0
-332 -16820 16821 0
-16821 16875 0
-333 -16821 16822 0
-16822 16876 0
-334 -16822 16823 0
-16823 16877 0
-335 -16823 16824 0
-16824 16878 0
-336 -16824 16825 0
-16825 16879 0
-337 -16825 16826 0
-16826 16880 0
-338 -16826 16827 0
-16827 16881 0
-339 -16827 16828 0
-16828 16882 0
-340 -16828 16829 0
-16829 16883 0
-341 -16829 16830 0
-16830 16884 0
-342 -16830 16831 0
-16831 16885 0
-343 -16831 16832 0
-16832 16886 0
-344 -16832 16833 0
-16833 16887 0
-345 -16833 16834 0
-16834 16888 0
-346 -16834 16835 0
-16835 16889 0
-347 -16835 16836 0
-16836 16890 0
-348 -16836 16837 0
-16837 16891 0
-349 -16837 16838 0
-16838 16892 0
-350 -16838 16839 0
-16839 16893 0
-351 -16839 16840 0
-16840 16894 0
-352 -16840 16841 0
-16841 16895 0
-353 -16841 16842 0
-16842 16896 0
-354 -16842 16843 0
-16843 16897 0
-355 -16843 16844 0
-16844 16898 0
-356 -16844 16845 0
-16845 16899 0
-357 -16845 16846 0
-16846 16900 0
-358 -16846 16847 0
-16847 16901 0
-359 -16847 0
-306 16848 0
-16848 16902 0
-307 -16848 16849 0
-16849 16903 0
-308 -16849 16850 0
-16850 16904 0
-309 -16850 16851 0
-16851 16905 0
-310 -16851 16852 0
-16852 16906 0
-311 -16852 16853 0
-16853 16907 0
-312 -16853 16854 0
-16854 16908 0
-313 -16854 16855 0
-16855 16909 0
-314 -16855 16856 0
-16856 16910 0
-315 -16856 16857 0
-16857 16911 0
-316 -16857 16858 0
-16858 16912 0
-317 -16858 16859 0
-16859 16913 0
-318 -16859 16860 0
-16860 16914 0
-319 -16860 16861 0
-16861 16915 0
-320 -16861 16862 0
-16862 16916 0
-321 -16862 16863 0
-16863 16917 0
-322 -16863 16864 0
-16864 16918 0
-323 -16864 16865 0
-16865 16919 0
-324 -16865 16866 0
-16866 16920 0
-325 -16866 16867 0
-16867 16921 0
-326 -16867 16868 0
-16868 16922 0
-327 -16868 16869 0
-16869 16923 0
-328 -16869 16870 0
-16870 16924 0
-329 -16870 16871 0
-16871 16925 0
-330 -16871 16872 0
-16872 16926 0
-331 -16872 16873 0
-16873 16927 0
-332 -16873 16874 0
-16874 16928 0
-333 -16874 16875 0
-16875 16929 0
-334 -16875 16876 0
-16876 16930 0
-335 -16876 16877 0
-16877 16931 0
-336 -16877 16878 0
-16878 16932 0
-337 -16878 16879 0
-16879 16933 0
-338 -16879 16880 0
-16880 16934 0
-339 -16880 16881 0
-16881 16935 0
-340 -16881 16882 0
-16882 16936 0
-341 -16882 16883 0
-16883 16937 0
-342 -16883 16884 0
-16884 16938 0
-343 -16884 16885 0
-16885 16939 0
-344 -16885 16886 0
-16886 16940 0
-345 -16886 16887 0
-16887 16941 0
-346 -16887 16888 0
-16888 16942 0
-347 -16888 16889 0
-16889 16943 0
-348 -16889 16890 0
-16890 16944 0
-349 -16890 16891 0
-16891 16945 0
-350 -16891 16892 0
-16892 16946 0
-351 -16892 16893 0
-16893 16947 0
-352 -16893 16894 0
-16894 16948 0
-353 -16894 16895 0
-16895 16949 0
-354 -16895 16896 0
-16896 16950 0
-355 -16896 16897 0
-16897 16951 0
-356 -16897 16898 0
-16898 16952 0
-357 -16898 16899 0
-16899 16953 0
-358 -16899 16900 0
-16900 16954 0
-359 -16900 16901 0
-16901 16955 0
-360 -16901 0
-307 16902 0
-16902 16956 0
-308 -16902 16903 0
-16903 16957 0
-309 -16903 16904 0
-16904 16958 0
-310 -16904 16905 0
-16905 16959 0
-311 -16905 16906 0
-16906 16960 0
-312 -16906 16907 0
-16907 16961 0
-313 -16907 16908 0
-16908 16962 0
-314 -16908 16909 0
-16909 16963 0
-315 -16909 16910 0
-16910 16964 0
-316 -16910 16911 0
-16911 16965 0
-317 -16911 16912 0
-16912 16966 0
-318 -16912 16913 0
-16913 16967 0
-319 -16913 16914 0
-16914 16968 0
-320 -16914 16915 0
-16915 16969 0
-321 -16915 16916 0
-16916 16970 0
-322 -16916 16917 0
-16917 16971 0
-323 -16917 16918 0
-16918 16972 0
-324 -16918 16919 0
-16919 16973 0
-325 -16919 16920 0
-16920 16974 0
-326 -16920 16921 0
-16921 16975 0
-327 -16921 16922 0
-16922 16976 0
-328 -16922 16923 0
-16923 16977 0
-329 -16923 16924 0
-16924 16978 0
-330 -16924 16925 0
-16925 16979 0
-331 -16925 16926 0
-16926 16980 0
-332 -16926 16927 0
-16927 16981 0
-333 -16927 16928 0
-16928 16982 0
-334 -16928 16929 0
-16929 16983 0
-335 -16929 16930 0
-16930 16984 0
-336 -16930 16931 0
-16931 16985 0
-337 -16931 16932 0
-16932 16986 0
-338 -16932 16933 0
-16933 16987 0
-339 -16933 16934 0
-16934 16988 0
-340 -16934 16935 0
-16935 16989 0
-341 -16935 16936 0
-16936 16990 0
-342 -16936 16937 0
-16937 16991 0
-343 -16937 16938 0
-16938 16992 0
-344 -16938 16939 0
-16939 16993 0
-345 -16939 16940 0
-16940 16994 0
-346 -16940 16941 0
-16941 16995 0
-347 -16941 16942 0
-16942 16996 0
-348 -16942 16943 0
-16943 16997 0
-349 -16943 16944 0
-16944 16998 0
-350 -16944 16945 0
-16945 16999 0
-351 -16945 16946 0
-16946 17000 0
-352 -16946 16947 0
-16947 17001 0
-353 -16947 16948 0
-16948 17002 0
-354 -16948 16949 0
-16949 17003 0
-355 -16949 16950 0
-16950 17004 0
-356 -16950 16951 0
-16951 17005 0
-357 -16951 16952 0
-16952 17006 0
-358 -16952 16953 0
-16953 17007 0
-359 -16953 16954 0
-16954 17008 0
-360 -16954 16955 0
-16955 17009 0
-361 -16955 0
-308 16956 0
-16956 17010 0
-309 -16956 16957 0
-16957 17011 0
-310 -16957 16958 0
-16958 17012 0
-311 -16958 16959 0
-16959 17013 0
-312 -16959 16960 0
-16960 17014 0
-313 -16960 16961 0
-16961 17015 0
-314 -16961 16962 0
-16962 17016 0
-315 -16962 16963 0
-16963 17017 0
-316 -16963 16964 0
-16964 17018 0
-317 -16964 16965 0
-16965 17019 0
-318 -16965 16966 0
-16966 17020 0
-319 -16966 16967 0
-16967 17021 0
-320 -16967 16968 0
-16968 17022 0
-321 -16968 16969 0
-16969 17023 0
-322 -16969 16970 0
-16970 17024 0
-323 -16970 16971 0
-16971 17025 0
-324 -16971 16972 0
-16972 17026 0
-325 -16972 16973 0
-16973 17027 0
-326 -16973 16974 0
-16974 17028 0
-327 -16974 16975 0
-16975 17029 0
-328 -16975 16976 0
-16976 17030 0
-329 -16976 16977 0
-16977 17031 0
-330 -16977 16978 0
-16978 17032 0
-331 -16978 16979 0
-16979 17033 0
-332 -16979 16980 0
-16980 17034 0
-333 -16980 16981 0
-16981 17035 0
-334 -16981 16982 0
-16982 17036 0
-335 -16982 16983 0
-16983 17037 0
-336 -16983 16984 0
-16984 17038 0
-337 -16984 16985 0
-16985 17039 0
-338 -16985 16986 0
-16986 17040 0
-339 -16986 16987 0
-16987 17041 0
-340 -16987 16988 0
-16988 17042 0
-341 -16988 16989 0
-16989 17043 0
-342 -16989 16990 0
-16990 17044 0
-343 -16990 16991 0
-16991 17045 0
-344 -16991 16992 0
-16992 17046 0
-345 -16992 16993 0
-16993 17047 0
-346 -16993 16994 0
-16994 17048 0
-347 -16994 16995 0
-16995 17049 0
-348 -16995 16996 0
-16996 17050 0
-349 -16996 16997 0
-16997 17051 0
-350 -16997 16998 0
-16998 17052 0
-351 -16998 16999 0
-16999 17053 0
-352 -16999 17000 0
-17000 17054 0
-353 -17000 17001 0
-17001 17055 0
-354 -17001 17002 0
-17002 17056 0
-355 -17002 17003 0
-17003 17057 0
-356 -17003 17004 0
-17004 17058 0
-357 -17004 17005 0
-17005 17059 0
-358 -17005 17006 0
-17006 17060 0
-359 -17006 17007 0
-17007 17061 0
-360 -17007 17008 0
-17008 17062 0
-361 -17008 17009 0
-17009 17063 0
-362 -17009 0
-309 17010 0
-17010 17064 0
-310 -17010 17011 0
-17011 17065 0
-311 -17011 17012 0
-17012 17066 0
-312 -17012 17013 0
-17013 17067 0
-313 -17013 17014 0
-17014 17068 0
-314 -17014 17015 0
-17015 17069 0
-315 -17015 17016 0
-17016 17070 0
-316 -17016 17017 0
-17017 17071 0
-317 -17017 17018 0
-17018 17072 0
-318 -17018 17019 0
-17019 17073 0
-319 -17019 17020 0
-17020 17074 0
-320 -17020 17021 0
-17021 17075 0
-321 -17021 17022 0
-17022 17076 0
-322 -17022 17023 0
-17023 17077 0
-323 -17023 17024 0
-17024 17078 0
-324 -17024 17025 0
-17025 17079 0
-325 -17025 17026 0
-17026 17080 0
-326 -17026 17027 0
-17027 17081 0
-327 -17027 17028 0
-17028 17082 0
-328 -17028 17029 0
-17029 17083 0
-329 -17029 17030 0
-17030 17084 0
-330 -17030 17031 0
-17031 17085 0
-331 -17031 17032 0
-17032 17086 0
-332 -17032 17033 0
-17033 17087 0
-333 -17033 17034 0
-17034 17088 0
-334 -17034 17035 0
-17035 17089 0
-335 -17035 17036 0
-17036 17090 0
-336 -17036 17037 0
-17037 17091 0
-337 -17037 17038 0
-17038 17092 0
-338 -17038 17039 0
-17039 17093 0
-339 -17039 17040 0
-17040 17094 0
-340 -17040 17041 0
-17041 17095 0
-341 -17041 17042 0
-17042 17096 0
-342 -17042 17043 0
-17043 17097 0
-343 -17043 17044 0
-17044 17098 0
-344 -17044 17045 0
-17045 17099 0
-345 -17045 17046 0
-17046 17100 0
-346 -17046 17047 0
-17047 17101 0
-347 -17047 17048 0
-17048 17102 0
-348 -17048 17049 0
-17049 17103 0
-349 -17049 17050 0
-17050 17104 0
-350 -17050 17051 0
-17051 17105 0
-351 -17051 17052 0
-17052 17106 0
-352 -17052 17053 0
-17053 17107 0
-353 -17053 17054 0
-17054 17108 0
-354 -17054 17055 0
-17055 17109 0
-355 -17055 17056 0
-17056 17110 0
-356 -17056 17057 0
-17057 17111 0
-357 -17057 17058 0
-17058 17112 0
-358 -17058 17059 0
-17059 17113 0
-359 -17059 17060 0
-17060 17114 0
-360 -17060 17061 0
-17061 17115 0
-361 -17061 17062 0
-17062 17116 0
-362 -17062 17063 0
-17063 17117 0
-363 -17063 0
-310 17064 0
-17064 17118 0
-311 -17064 17065 0
-17065 17119 0
-312 -17065 17066 0
-17066 17120 0
-313 -17066 17067 0
-17067 17121 0
-314 -17067 17068 0
-17068 17122 0
-315 -17068 17069 0
-17069 17123 0
-316 -17069 17070 0
-17070 17124 0
-317 -17070 17071 0
-17071 17125 0
-318 -17071 17072 0
-17072 17126 0
-319 -17072 17073 0
-17073 17127 0
-320 -17073 17074 0
-17074 17128 0
-321 -17074 17075 0
-17075 17129 0
-322 -17075 17076 0
-17076 17130 0
-323 -17076 17077 0
-17077 17131 0
-324 -17077 17078 0
-17078 17132 0
-325 -17078 17079 0
-17079 17133 0
-326 -17079 17080 0
-17080 17134 0
-327 -17080 17081 0
-17081 17135 0
-328 -17081 17082 0
-17082 17136 0
-329 -17082 17083 0
-17083 17137 0
-330 -17083 17084 0
-17084 17138 0
-331 -17084 17085 0
-17085 17139 0
-332 -17085 17086 0
-17086 17140 0
-333 -17086 17087 0
-17087 17141 0
-334 -17087 17088 0
-17088 17142 0
-335 -17088 17089 0
-17089 17143 0
-336 -17089 17090 0
-17090 17144 0
-337 -17090 17091 0
-17091 17145 0
-338 -17091 17092 0
-17092 17146 0
-339 -17092 17093 0
-17093 17147 0
-340 -17093 17094 0
-17094 17148 0
-341 -17094 17095 0
-17095 17149 0
-342 -17095 17096 0
-17096 17150 0
-343 -17096 17097 0
-17097 17151 0
-344 -17097 17098 0
-17098 17152 0
-345 -17098 17099 0
-17099 17153 0
-346 -17099 17100 0
-17100 17154 0
-347 -17100 17101 0
-17101 17155 0
-348 -17101 17102 0
-17102 17156 0
-349 -17102 17103 0
-17103 17157 0
-350 -17103 17104 0
-17104 17158 0
-351 -17104 17105 0
-17105 17159 0
-352 -17105 17106 0
-17106 17160 0
-353 -17106 17107 0
-17107 17161 0
-354 -17107 17108 0
-17108 17162 0
-355 -17108 17109 0
-17109 17163 0
-356 -17109 17110 0
-17110 17164 0
-357 -17110 17111 0
-17111 17165 0
-358 -17111 17112 0
-17112 17166 0
-359 -17112 17113 0
-17113 17167 0
-360 -17113 17114 0
-17114 17168 0
-361 -17114 17115 0
-17115 17169 0
-362 -17115 17116 0
-17116 17170 0
-363 -17116 17117 0
-17117 17171 0
-364 -17117 0
-311 17118 0
-17118 17172 0
-312 -17118 17119 0
-17119 17173 0
-313 -17119 17120 0
-17120 17174 0
-314 -17120 17121 0
-17121 17175 0
-315 -17121 17122 0
-17122 17176 0
-316 -17122 17123 0
-17123 17177 0
-317 -17123 17124 0
-17124 17178 0
-318 -17124 17125 0
-17125 17179 0
-319 -17125 17126 0
-17126 17180 0
-320 -17126 17127 0
-17127 17181 0
-321 -17127 17128 0
-17128 17182 0
-322 -17128 17129 0
-17129 17183 0
-323 -17129 17130 0
-17130 17184 0
-324 -17130 17131 0
-17131 17185 0
-325 -17131 17132 0
-17132 17186 0
-326 -17132 17133 0
-17133 17187 0
-327 -17133 17134 0
-17134 17188 0
-328 -17134 17135 0
-17135 17189 0
-329 -17135 17136 0
-17136 17190 0
-330 -17136 17137 0
-17137 17191 0
-331 -17137 17138 0
-17138 17192 0
-332 -17138 17139 0
-17139 17193 0
-333 -17139 17140 0
-17140 17194 0
-334 -17140 17141 0
-17141 17195 0
-335 -17141 17142 0
-17142 17196 0
-336 -17142 17143 0
-17143 17197 0
-337 -17143 17144 0
-17144 17198 0
-338 -17144 17145 0
-17145 17199 0
-339 -17145 17146 0
-17146 17200 0
-340 -17146 17147 0
-17147 17201 0
-341 -17147 17148 0
-17148 17202 0
-342 -17148 17149 0
-17149 17203 0
-343 -17149 17150 0
-17150 17204 0
-344 -17150 17151 0
-17151 17205 0
-345 -17151 17152 0
-17152 17206 0
-346 -17152 17153 0
-17153 17207 0
-347 -17153 17154 0
-17154 17208 0
-348 -17154 17155 0
-17155 17209 0
-349 -17155 17156 0
-17156 17210 0
-350 -17156 17157 0
-17157 17211 0
-351 -17157 17158 0
-17158 17212 0
-352 -17158 17159 0
-17159 17213 0
-353 -17159 17160 0
-17160 17214 0
-354 -17160 17161 0
-17161 17215 0
-355 -17161 17162 0
-17162 17216 0
-356 -17162 17163 0
-17163 17217 0
-357 -17163 17164 0
-17164 17218 0
-358 -17164 17165 0
-17165 17219 0
-359 -17165 17166 0
-17166 17220 0
-360 -17166 17167 0
-17167 17221 0
-361 -17167 17168 0
-17168 17222 0
-362 -17168 17169 0
-17169 17223 0
-363 -17169 17170 0
-17170 17224 0
-364 -17170 17171 0
-17171 17225 0
-365 -17171 0
-312 17172 0
-17172 17226 0
-313 -17172 17173 0
-17173 17227 0
-314 -17173 17174 0
-17174 17228 0
-315 -17174 17175 0
-17175 17229 0
-316 -17175 17176 0
-17176 17230 0
-317 -17176 17177 0
-17177 17231 0
-318 -17177 17178 0
-17178 17232 0
-319 -17178 17179 0
-17179 17233 0
-320 -17179 17180 0
-17180 17234 0
-321 -17180 17181 0
-17181 17235 0
-322 -17181 17182 0
-17182 17236 0
-323 -17182 17183 0
-17183 17237 0
-324 -17183 17184 0
-17184 17238 0
-325 -17184 17185 0
-17185 17239 0
-326 -17185 17186 0
-17186 17240 0
-327 -17186 17187 0
-17187 17241 0
-328 -17187 17188 0
-17188 17242 0
-329 -17188 17189 0
-17189 17243 0
-330 -17189 17190 0
-17190 17244 0
-331 -17190 17191 0
-17191 17245 0
-332 -17191 17192 0
-17192 17246 0
-333 -17192 17193 0
-17193 17247 0
-334 -17193 17194 0
-17194 17248 0
-335 -17194 17195 0
-17195 17249 0
-336 -17195 17196 0
-17196 17250 0
-337 -17196 17197 0
-17197 17251 0
-338 -17197 17198 0
-17198 17252 0
-339 -17198 17199 0
-17199 17253 0
-340 -17199 17200 0
-17200 17254 0
-341 -17200 17201 0
-17201 17255 0
-342 -17201 17202 0
-17202 17256 0
-343 -17202 17203 0
-17203 17257 0
-344 -17203 17204 0
-17204 17258 0
-345 -17204 17205 0
-17205 17259 0
-346 -17205 17206 0
-17206 17260 0
-347 -17206 17207 0
-17207 17261 0
-348 -17207 17208 0
-17208 17262 0
-349 -17208 17209 0
-17209 17263 0
-350 -17209 17210 0
-17210 17264 0
-351 -17210 17211 0
-17211 17265 0
-352 -17211 17212 0
-17212 17266 0
-353 -17212 17213 0
-17213 17267 0
-354 -17213 17214 0
-17214 17268 0
-355 -17214 17215 0
-17215 17269 0
-356 -17215 17216 0
-17216 17270 0
-357 -17216 17217 0
-17217 17271 0
-358 -17217 17218 0
-17218 17272 0
-359 -17218 17219 0
-17219 17273 0
-360 -17219 17220 0
-17220 17274 0
-361 -17220 17221 0
-17221 17275 0
-362 -17221 17222 0
-17222 17276 0
-363 -17222 17223 0
-17223 17277 0
-364 -17223 17224 0
-17224 17278 0
-365 -17224 17225 0
-17225 17279 0
-366 -17225 0
-313 17226 0
-17226 17280 0
-314 -17226 17227 0
-17227 17281 0
-315 -17227 17228 0
-17228 17282 0
-316 -17228 17229 0
-17229 17283 0
-317 -17229 17230 0
-17230 17284 0
-318 -17230 17231 0
-17231 17285 0
-319 -17231 17232 0
-17232 17286 0
-320 -17232 17233 0
-17233 17287 0
-321 -17233 17234 0
-17234 17288 0
-322 -17234 17235 0
-17235 17289 0
-323 -17235 17236 0
-17236 17290 0
-324 -17236 17237 0
-17237 17291 0
-325 -17237 17238 0
-17238 17292 0
-326 -17238 17239 0
-17239 17293 0
-327 -17239 17240 0
-17240 17294 0
-328 -17240 17241 0
-17241 17295 0
-329 -17241 17242 0
-17242 17296 0
-330 -17242 17243 0
-17243 17297 0
-331 -17243 17244 0
-17244 17298 0
-332 -17244 17245 0
-17245 17299 0
-333 -17245 17246 0
-17246 17300 0
-334 -17246 17247 0
-17247 17301 0
-335 -17247 17248 0
-17248 17302 0
-336 -17248 17249 0
-17249 17303 0
-337 -17249 17250 0
-17250 17304 0
-338 -17250 17251 0
-17251 17305 0
-339 -17251 17252 0
-17252 17306 0
-340 -17252 17253 0
-17253 17307 0
-341 -17253 17254 0
-17254 17308 0
-342 -17254 17255 0
-17255 17309 0
-343 -17255 17256 0
-17256 17310 0
-344 -17256 17257 0
-17257 17311 0
-345 -17257 17258 0
-17258 17312 0
-346 -17258 17259 0
-17259 17313 0
-347 -17259 17260 0
-17260 17314 0
-348 -17260 17261 0
-17261 17315 0
-349 -17261 17262 0
-17262 17316 0
-350 -17262 17263 0
-17263 17317 0
-351 -17263 17264 0
-17264 17318 0
-352 -17264 17265 0
-17265 17319 0
-353 -17265 17266 0
-17266 17320 0
-354 -17266 17267 0
-17267 17321 0
-355 -17267 17268 0
-17268 17322 0
-356 -17268 17269 0
-17269 17323 0
-357 -17269 17270 0
-17270 17324 0
-358 -17270 17271 0
-17271 17325 0
-359 -17271 17272 0
-17272 17326 0
-360 -17272 17273 0
-17273 17327 0
-361 -17273 17274 0
-17274 17328 0
-362 -17274 17275 0
-17275 17329 0
-363 -17275 17276 0
-17276 17330 0
-364 -17276 17277 0
-17277 17331 0
-365 -17277 17278 0
-17278 17332 0
-366 -17278 17279 0
-17279 17333 0
-367 -17279 0
-314 17280 0
-17280 17334 0
-315 -17280 17281 0
-17281 17335 0
-316 -17281 17282 0
-17282 17336 0
-317 -17282 17283 0
-17283 17337 0
-318 -17283 17284 0
-17284 17338 0
-319 -17284 17285 0
-17285 17339 0
-320 -17285 17286 0
-17286 17340 0
-321 -17286 17287 0
-17287 17341 0
-322 -17287 17288 0
-17288 17342 0
-323 -17288 17289 0
-17289 17343 0
-324 -17289 17290 0
-17290 17344 0
-325 -17290 17291 0
-17291 17345 0
-326 -17291 17292 0
-17292 17346 0
-327 -17292 17293 0
-17293 17347 0
-328 -17293 17294 0
-17294 17348 0
-329 -17294 17295 0
-17295 17349 0
-330 -17295 17296 0
-17296 17350 0
-331 -17296 17297 0
-17297 17351 0
-332 -17297 17298 0
-17298 17352 0
-333 -17298 17299 0
-17299 17353 0
-334 -17299 17300 0
-17300 17354 0
-335 -17300 17301 0
-17301 17355 0
-336 -17301 17302 0
-17302 17356 0
-337 -17302 17303 0
-17303 17357 0
-338 -17303 17304 0
-17304 17358 0
-339 -17304 17305 0
-17305 17359 0
-340 -17305 17306 0
-17306 17360 0
-341 -17306 17307 0
-17307 17361 0
-342 -17307 17308 0
-17308 17362 0
-343 -17308 17309 0
-17309 17363 0
-344 -17309 17310 0
-17310 17364 0
-345 -17310 17311 0
-17311 17365 0
-346 -17311 17312 0
-17312 17366 0
-347 -17312 17313 0
-17313 17367 0
-348 -17313 17314 0
-17314 17368 0
-349 -17314 17315 0
-17315 17369 0
-350 -17315 17316 0
-17316 17370 0
-351 -17316 17317 0
-17317 17371 0
-352 -17317 17318 0
-17318 17372 0
-353 -17318 17319 0
-17319 17373 0
-354 -17319 17320 0
-17320 17374 0
-355 -17320 17321 0
-17321 17375 0
-356 -17321 17322 0
-17322 17376 0
-357 -17322 17323 0
-17323 17377 0
-358 -17323 17324 0
-17324 17378 0
-359 -17324 17325 0
-17325 17379 0
-360 -17325 17326 0
-17326 17380 0
-361 -17326 17327 0
-17327 17381 0
-362 -17327 17328 0
-17328 17382 0
-363 -17328 17329 0
-17329 17383 0
-364 -17329 17330 0
-17330 17384 0
-365 -17330 17331 0
-17331 17385 0
-366 -17331 17332 0
-17332 17386 0
-367 -17332 17333 0
-17333 17387 0
-368 -17333 0
-315 17334 0
-17334 17388 0
-316 -17334 17335 0
-17335 17389 0
-317 -17335 17336 0
-17336 17390 0
-318 -17336 17337 0
-17337 17391 0
-319 -17337 17338 0
-17338 17392 0
-320 -17338 17339 0
-17339 17393 0
-321 -17339 17340 0
-17340 17394 0
-322 -17340 17341 0
-17341 17395 0
-323 -17341 17342 0
-17342 17396 0
-324 -17342 17343 0
-17343 17397 0
-325 -17343 17344 0
-17344 17398 0
-326 -17344 17345 0
-17345 17399 0
-327 -17345 17346 0
-17346 17400 0
-328 -17346 17347 0
-17347 17401 0
-329 -17347 17348 0
-17348 17402 0
-330 -17348 17349 0
-17349 17403 0
-331 -17349 17350 0
-17350 17404 0
-332 -17350 17351 0
-17351 17405 0
-333 -17351 17352 0
-17352 17406 0
-334 -17352 17353 0
-17353 17407 0
-335 -17353 17354 0
-17354 17408 0
-336 -17354 17355 0
-17355 17409 0
-337 -17355 17356 0
-17356 17410 0
-338 -17356 17357 0
-17357 17411 0
-339 -17357 17358 0
-17358 17412 0
-340 -17358 17359 0
-17359 17413 0
-341 -17359 17360 0
-17360 17414 0
-342 -17360 17361 0
-17361 17415 0
-343 -17361 17362 0
-17362 17416 0
-344 -17362 17363 0
-17363 17417 0
-345 -17363 17364 0
-17364 17418 0
-346 -17364 17365 0
-17365 17419 0
-347 -17365 17366 0
-17366 17420 0
-348 -17366 17367 0
-17367 17421 0
-349 -17367 17368 0
-17368 17422 0
-350 -17368 17369 0
-17369 17423 0
-351 -17369 17370 0
-17370 17424 0
-352 -17370 17371 0
-17371 17425 0
-353 -17371 17372 0
-17372 17426 0
-354 -17372 17373 0
-17373 17427 0
-355 -17373 17374 0
-17374 17428 0
-356 -17374 17375 0
-17375 17429 0
-357 -17375 17376 0
-17376 17430 0
-358 -17376 17377 0
-17377 17431 0
-359 -17377 17378 0
-17378 17432 0
-360 -17378 17379 0
-17379 17433 0
-361 -17379 17380 0
-17380 17434 0
-362 -17380 17381 0
-17381 17435 0
-363 -17381 17382 0
-17382 17436 0
-364 -17382 17383 0
-17383 17437 0
-365 -17383 17384 0
-17384 17438 0
-366 -17384 17385 0
-17385 17439 0
-367 -17385 17386 0
-17386 17440 0
-368 -17386 17387 0
-17387 17441 0
-369 -17387 0
-316 17388 0
-17388 17442 0
-317 -17388 17389 0
-17389 17443 0
-318 -17389 17390 0
-17390 17444 0
-319 -17390 17391 0
-17391 17445 0
-320 -17391 17392 0
-17392 17446 0
-321 -17392 17393 0
-17393 17447 0
-322 -17393 17394 0
-17394 17448 0
-323 -17394 17395 0
-17395 17449 0
-324 -17395 17396 0
-17396 17450 0
-325 -17396 17397 0
-17397 17451 0
-326 -17397 17398 0
-17398 17452 0
-327 -17398 17399 0
-17399 17453 0
-328 -17399 17400 0
-17400 17454 0
-329 -17400 17401 0
-17401 17455 0
-330 -17401 17402 0
-17402 17456 0
-331 -17402 17403 0
-17403 17457 0
-332 -17403 17404 0
-17404 17458 0
-333 -17404 17405 0
-17405 17459 0
-334 -17405 17406 0
-17406 17460 0
-335 -17406 17407 0
-17407 17461 0
-336 -17407 17408 0
-17408 17462 0
-337 -17408 17409 0
-17409 17463 0
-338 -17409 17410 0
-17410 17464 0
-339 -17410 17411 0
-17411 17465 0
-340 -17411 17412 0
-17412 17466 0
-341 -17412 17413 0
-17413 17467 0
-342 -17413 17414 0
-17414 17468 0
-343 -17414 17415 0
-17415 17469 0
-344 -17415 17416 0
-17416 17470 0
-345 -17416 17417 0
-17417 17471 0
-346 -17417 17418 0
-17418 17472 0
-347 -17418 17419 0
-17419 17473 0
-348 -17419 17420 0
-17420 17474 0
-349 -17420 17421 0
-17421 17475 0
-350 -17421 17422 0
-17422 17476 0
-351 -17422 17423 0
-17423 17477 0
-352 -17423 17424 0
-17424 17478 0
-353 -17424 17425 0
-17425 17479 0
-354 -17425 17426 0
-17426 17480 0
-355 -17426 17427 0
-17427 17481 0
-356 -17427 17428 0
-17428 17482 0
-357 -17428 17429 0
-17429 17483 0
-358 -17429 17430 0
-17430 17484 0
-359 -17430 17431 0
-17431 17485 0
-360 -17431 17432 0
-17432 17486 0
-361 -17432 17433 0
-17433 17487 0
-362 -17433 17434 0
-17434 17488 0
-363 -17434 17435 0
-17435 17489 0
-364 -17435 17436 0
-17436 17490 0
-365 -17436 17437 0
-17437 17491 0
-366 -17437 17438 0
-17438 17492 0
-367 -17438 17439 0
-17439 17493 0
-368 -17439 17440 0
-17440 17494 0
-369 -17440 17441 0
-17441 17495 0
-370 -17441 0
-317 17442 0
-17442 17496 0
-318 -17442 17443 0
-17443 17497 0
-319 -17443 17444 0
-17444 17498 0
-320 -17444 17445 0
-17445 17499 0
-321 -17445 17446 0
-17446 17500 0
-322 -17446 17447 0
-17447 17501 0
-323 -17447 17448 0
-17448 17502 0
-324 -17448 17449 0
-17449 17503 0
-325 -17449 17450 0
-17450 17504 0
-326 -17450 17451 0
-17451 17505 0
-327 -17451 17452 0
-17452 17506 0
-328 -17452 17453 0
-17453 17507 0
-329 -17453 17454 0
-17454 17508 0
-330 -17454 17455 0
-17455 17509 0
-331 -17455 17456 0
-17456 17510 0
-332 -17456 17457 0
-17457 17511 0
-333 -17457 17458 0
-17458 17512 0
-334 -17458 17459 0
-17459 17513 0
-335 -17459 17460 0
-17460 17514 0
-336 -17460 17461 0
-17461 17515 0
-337 -17461 17462 0
-17462 17516 0
-338 -17462 17463 0
-17463 17517 0
-339 -17463 17464 0
-17464 17518 0
-340 -17464 17465 0
-17465 17519 0
-341 -17465 17466 0
-17466 17520 0
-342 -17466 17467 0
-17467 17521 0
-343 -17467 17468 0
-17468 17522 0
-344 -17468 17469 0
-17469 17523 0
-345 -17469 17470 0
-17470 17524 0
-346 -17470 17471 0
-17471 17525 0
-347 -17471 17472 0
-17472 17526 0
-348 -17472 17473 0
-17473 17527 0
-349 -17473 17474 0
-17474 17528 0
-350 -17474 17475 0
-17475 17529 0
-351 -17475 17476 0
-17476 17530 0
-352 -17476 17477 0
-17477 17531 0
-353 -17477 17478 0
-17478 17532 0
-354 -17478 17479 0
-17479 17533 0
-355 -17479 17480 0
-17480 17534 0
-356 -17480 17481 0
-17481 17535 0
-357 -17481 17482 0
-17482 17536 0
-358 -17482 17483 0
-17483 17537 0
-359 -17483 17484 0
-17484 17538 0
-360 -17484 17485 0
-17485 17539 0
-361 -17485 17486 0
-17486 17540 0
-362 -17486 17487 0
-17487 17541 0
-363 -17487 17488 0
-17488 17542 0
-364 -17488 17489 0
-17489 17543 0
-365 -17489 17490 0
-17490 17544 0
-366 -17490 17491 0
-17491 17545 0
-367 -17491 17492 0
-17492 17546 0
-368 -17492 17493 0
-17493 17547 0
-369 -17493 17494 0
-17494 17548 0
-370 -17494 17495 0
-17495 17549 0
-371 -17495 0
-318 17496 0
-17496 17550 0
-319 -17496 17497 0
-17497 17551 0
-320 -17497 17498 0
-17498 17552 0
-321 -17498 17499 0
-17499 17553 0
-322 -17499 17500 0
-17500 17554 0
-323 -17500 17501 0
-17501 17555 0
-324 -17501 17502 0
-17502 17556 0
-325 -17502 17503 0
-17503 17557 0
-326 -17503 17504 0
-17504 17558 0
-327 -17504 17505 0
-17505 17559 0
-328 -17505 17506 0
-17506 17560 0
-329 -17506 17507 0
-17507 17561 0
-330 -17507 17508 0
-17508 17562 0
-331 -17508 17509 0
-17509 17563 0
-332 -17509 17510 0
-17510 17564 0
-333 -17510 17511 0
-17511 17565 0
-334 -17511 17512 0
-17512 17566 0
-335 -17512 17513 0
-17513 17567 0
-336 -17513 17514 0
-17514 17568 0
-337 -17514 17515 0
-17515 17569 0
-338 -17515 17516 0
-17516 17570 0
-339 -17516 17517 0
-17517 17571 0
-340 -17517 17518 0
-17518 17572 0
-341 -17518 17519 0
-17519 17573 0
-342 -17519 17520 0
-17520 17574 0
-343 -17520 17521 0
-17521 17575 0
-344 -17521 17522 0
-17522 17576 0
-345 -17522 17523 0
-17523 17577 0
-346 -17523 17524 0
-17524 17578 0
-347 -17524 17525 0
-17525 17579 0
-348 -17525 17526 0
-17526 17580 0
-349 -17526 17527 0
-17527 17581 0
-350 -17527 17528 0
-17528 17582 0
-351 -17528 17529 0
-17529 17583 0
-352 -17529 17530 0
-17530 17584 0
-353 -17530 17531 0
-17531 17585 0
-354 -17531 17532 0
-17532 17586 0
-355 -17532 17533 0
-17533 17587 0
-356 -17533 17534 0
-17534 17588 0
-357 -17534 17535 0
-17535 17589 0
-358 -17535 17536 0
-17536 17590 0
-359 -17536 17537 0
-17537 17591 0
-360 -17537 17538 0
-17538 17592 0
-361 -17538 17539 0
-17539 17593 0
-362 -17539 17540 0
-17540 17594 0
-363 -17540 17541 0
-17541 17595 0
-364 -17541 17542 0
-17542 17596 0
-365 -17542 17543 0
-17543 17597 0
-366 -17543 17544 0
-17544 17598 0
-367 -17544 17545 0
-17545 17599 0
-368 -17545 17546 0
-17546 17600 0
-369 -17546 17547 0
-17547 17601 0
-370 -17547 17548 0
-17548 17602 0
-371 -17548 17549 0
-17549 17603 0
-372 -17549 0
-319 17550 0
-17550 17604 0
-320 -17550 17551 0
-17551 17605 0
-321 -17551 17552 0
-17552 17606 0
-322 -17552 17553 0
-17553 17607 0
-323 -17553 17554 0
-17554 17608 0
-324 -17554 17555 0
-17555 17609 0
-325 -17555 17556 0
-17556 17610 0
-326 -17556 17557 0
-17557 17611 0
-327 -17557 17558 0
-17558 17612 0
-328 -17558 17559 0
-17559 17613 0
-329 -17559 17560 0
-17560 17614 0
-330 -17560 17561 0
-17561 17615 0
-331 -17561 17562 0
-17562 17616 0
-332 -17562 17563 0
-17563 17617 0
-333 -17563 17564 0
-17564 17618 0
-334 -17564 17565 0
-17565 17619 0
-335 -17565 17566 0
-17566 17620 0
-336 -17566 17567 0
-17567 17621 0
-337 -17567 17568 0
-17568 17622 0
-338 -17568 17569 0
-17569 17623 0
-339 -17569 17570 0
-17570 17624 0
-340 -17570 17571 0
-17571 17625 0
-341 -17571 17572 0
-17572 17626 0
-342 -17572 17573 0
-17573 17627 0
-343 -17573 17574 0
-17574 17628 0
-344 -17574 17575 0
-17575 17629 0
-345 -17575 17576 0
-17576 17630 0
-346 -17576 17577 0
-17577 17631 0
-347 -17577 17578 0
-17578 17632 0
-348 -17578 17579 0
-17579 17633 0
-349 -17579 17580 0
-17580 17634 0
-350 -17580 17581 0
-17581 17635 0
-351 -17581 17582 0
-17582 17636 0
-352 -17582 17583 0
-17583 17637 0
-353 -17583 17584 0
-17584 17638 0
-354 -17584 17585 0
-17585 17639 0
-355 -17585 17586 0
-17586 17640 0
-356 -17586 17587 0
-17587 17641 0
-357 -17587 17588 0
-17588 17642 0
-358 -17588 17589 0
-17589 17643 0
-359 -17589 17590 0
-17590 17644 0
-360 -17590 17591 0
-17591 17645 0
-361 -17591 17592 0
-17592 17646 0
-362 -17592 17593 0
-17593 17647 0
-363 -17593 17594 0
-17594 17648 0
-364 -17594 17595 0
-17595 17649 0
-365 -17595 17596 0
-17596 17650 0
-366 -17596 17597 0
-17597 17651 0
-367 -17597 17598 0
-17598 17652 0
-368 -17598 17599 0
-17599 17653 0
-369 -17599 17600 0
-17600 17654 0
-370 -17600 17601 0
-17601 17655 0
-371 -17601 17602 0
-17602 17656 0
-372 -17602 17603 0
-17603 17657 0
-373 -17603 0
-320 17604 0
-17604 17658 0
-321 -17604 17605 0
-17605 17659 0
-322 -17605 17606 0
-17606 17660 0
-323 -17606 17607 0
-17607 17661 0
-324 -17607 17608 0
-17608 17662 0
-325 -17608 17609 0
-17609 17663 0
-326 -17609 17610 0
-17610 17664 0
-327 -17610 17611 0
-17611 17665 0
-328 -17611 17612 0
-17612 17666 0
-329 -17612 17613 0
-17613 17667 0
-330 -17613 17614 0
-17614 17668 0
-331 -17614 17615 0
-17615 17669 0
-332 -17615 17616 0
-17616 17670 0
-333 -17616 17617 0
-17617 17671 0
-334 -17617 17618 0
-17618 17672 0
-335 -17618 17619 0
-17619 17673 0
-336 -17619 17620 0
-17620 17674 0
-337 -17620 17621 0
-17621 17675 0
-338 -17621 17622 0
-17622 17676 0
-339 -17622 17623 0
-17623 17677 0
-340 -17623 17624 0
-17624 17678 0
-341 -17624 17625 0
-17625 17679 0
-342 -17625 17626 0
-17626 17680 0
-343 -17626 17627 0
-17627 17681 0
-344 -17627 17628 0
-17628 17682 0
-345 -17628 17629 0
-17629 17683 0
-346 -17629 17630 0
-17630 17684 0
-347 -17630 17631 0
-17631 17685 0
-348 -17631 17632 0
-17632 17686 0
-349 -17632 17633 0
-17633 17687 0
-350 -17633 17634 0
-17634 17688 0
-351 -17634 17635 0
-17635 17689 0
-352 -17635 17636 0
-17636 17690 0
-353 -17636 17637 0
-17637 17691 0
-354 -17637 17638 0
-17638 17692 0
-355 -17638 17639 0
-17639 17693 0
-356 -17639 17640 0
-17640 17694 0
-357 -17640 17641 0
-17641 17695 0
-358 -17641 17642 0
-17642 17696 0
-359 -17642 17643 0
-17643 17697 0
-360 -17643 17644 0
-17644 17698 0
-361 -17644 17645 0
-17645 17699 0
-362 -17645 17646 0
-17646 17700 0
-363 -17646 17647 0
-17647 17701 0
-364 -17647 17648 0
-17648 17702 0
-365 -17648 17649 0
-17649 17703 0
-366 -17649 17650 0
-17650 17704 0
-367 -17650 17651 0
-17651 17705 0
-368 -17651 17652 0
-17652 17706 0
-369 -17652 17653 0
-17653 17707 0
-370 -17653 17654 0
-17654 17708 0
-371 -17654 17655 0
-17655 17709 0
-372 -17655 17656 0
-17656 17710 0
-373 -17656 17657 0
-17657 17711 0
-374 -17657 0
-321 17658 0
-17658 17712 0
-322 -17658 17659 0
-17659 17713 0
-323 -17659 17660 0
-17660 17714 0
-324 -17660 17661 0
-17661 17715 0
-325 -17661 17662 0
-17662 17716 0
-326 -17662 17663 0
-17663 17717 0
-327 -17663 17664 0
-17664 17718 0
-328 -17664 17665 0
-17665 17719 0
-329 -17665 17666 0
-17666 17720 0
-330 -17666 17667 0
-17667 17721 0
-331 -17667 17668 0
-17668 17722 0
-332 -17668 17669 0
-17669 17723 0
-333 -17669 17670 0
-17670 17724 0
-334 -17670 17671 0
-17671 17725 0
-335 -17671 17672 0
-17672 17726 0
-336 -17672 17673 0
-17673 17727 0
-337 -17673 17674 0
-17674 17728 0
-338 -17674 17675 0
-17675 17729 0
-339 -17675 17676 0
-17676 17730 0
-340 -17676 17677 0
-17677 17731 0
-341 -17677 17678 0
-17678 17732 0
-342 -17678 17679 0
-17679 17733 0
-343 -17679 17680 0
-17680 17734 0
-344 -17680 17681 0
-17681 17735 0
-345 -17681 17682 0
-17682 17736 0
-346 -17682 17683 0
-17683 17737 0
-347 -17683 17684 0
-17684 17738 0
-348 -17684 17685 0
-17685 17739 0
-349 -17685 17686 0
-17686 17740 0
-350 -17686 17687 0
-17687 17741 0
-351 -17687 17688 0
-17688 17742 0
-352 -17688 17689 0
-17689 17743 0
-353 -17689 17690 0
-17690 17744 0
-354 -17690 17691 0
-17691 17745 0
-355 -17691 17692 0
-17692 17746 0
-356 -17692 17693 0
-17693 17747 0
-357 -17693 17694 0
-17694 17748 0
-358 -17694 17695 0
-17695 17749 0
-359 -17695 17696 0
-17696 17750 0
-360 -17696 17697 0
-17697 17751 0
-361 -17697 17698 0
-17698 17752 0
-362 -17698 17699 0
-17699 17753 0
-363 -17699 17700 0
-17700 17754 0
-364 -17700 17701 0
-17701 17755 0
-365 -17701 17702 0
-17702 17756 0
-366 -17702 17703 0
-17703 17757 0
-367 -17703 17704 0
-17704 17758 0
-368 -17704 17705 0
-17705 17759 0
-369 -17705 17706 0
-17706 17760 0
-370 -17706 17707 0
-17707 17761 0
-371 -17707 17708 0
-17708 17762 0
-372 -17708 17709 0
-17709 17763 0
-373 -17709 17710 0
-17710 17764 0
-374 -17710 17711 0
-17711 17765 0
-375 -17711 0
-322 17712 0
-17712 17766 0
-323 -17712 17713 0
-17713 17767 0
-324 -17713 17714 0
-17714 17768 0
-325 -17714 17715 0
-17715 17769 0
-326 -17715 17716 0
-17716 17770 0
-327 -17716 17717 0
-17717 17771 0
-328 -17717 17718 0
-17718 17772 0
-329 -17718 17719 0
-17719 17773 0
-330 -17719 17720 0
-17720 17774 0
-331 -17720 17721 0
-17721 17775 0
-332 -17721 17722 0
-17722 17776 0
-333 -17722 17723 0
-17723 17777 0
-334 -17723 17724 0
-17724 17778 0
-335 -17724 17725 0
-17725 17779 0
-336 -17725 17726 0
-17726 17780 0
-337 -17726 17727 0
-17727 17781 0
-338 -17727 17728 0
-17728 17782 0
-339 -17728 17729 0
-17729 17783 0
-340 -17729 17730 0
-17730 17784 0
-341 -17730 17731 0
-17731 17785 0
-342 -17731 17732 0
-17732 17786 0
-343 -17732 17733 0
-17733 17787 0
-344 -17733 17734 0
-17734 17788 0
-345 -17734 17735 0
-17735 17789 0
-346 -17735 17736 0
-17736 17790 0
-347 -17736 17737 0
-17737 17791 0
-348 -17737 17738 0
-17738 17792 0
-349 -17738 17739 0
-17739 17793 0
-350 -17739 17740 0
-17740 17794 0
-351 -17740 17741 0
-17741 17795 0
-352 -17741 17742 0
-17742 17796 0
-353 -17742 17743 0
-17743 17797 0
-354 -17743 17744 0
-17744 17798 0
-355 -17744 17745 0
-17745 17799 0
-356 -17745 17746 0
-17746 17800 0
-357 -17746 17747 0
-17747 17801 0
-358 -17747 17748 0
-17748 17802 0
-359 -17748 17749 0
-17749 17803 0
-360 -17749 17750 0
-17750 17804 0
-361 -17750 17751 0
-17751 17805 0
-362 -17751 17752 0
-17752 17806 0
-363 -17752 17753 0
-17753 17807 0
-364 -17753 17754 0
-17754 17808 0
-365 -17754 17755 0
-17755 17809 0
-366 -17755 17756 0
-17756 17810 0
-367 -17756 17757 0
-17757 17811 0
-368 -17757 17758 0
-17758 17812 0
-369 -17758 17759 0
-17759 17813 0
-370 -17759 17760 0
-17760 17814 0
-371 -17760 17761 0
-17761 17815 0
-372 -17761 17762 0
-17762 17816 0
-373 -17762 17763 0
-17763 17817 0
-374 -17763 17764 0
-17764 17818 0
-375 -17764 17765 0
-17765 17819 0
-376 -17765 0
-323 17766 0
-324 -17766 17767 0
-325 -17767 17768 0
-326 -17768 17769 0
-327 -17769 17770 0
-328 -17770 17771 0
-329 -17771 17772 0
-330 -17772 17773 0
-331 -17773 17774 0
-332 -17774 17775 0
-333 -17775 17776 0
-334 -17776 17777 0
-335 -17777 17778 0
-336 -17778 17779 0
-337 -17779 17780 0
-338 -17780 17781 0
-339 -17781 17782 0
-340 -17782 17783 0
-341 -17783 17784 0
-342 -17784 17785 0
-343 -17785 17786 0
-344 -17786 17787 0
-345 -17787 17788 0
-346 -17788 17789 0
-347 -17789 17790 0
-348 -17790 17791 0
-349 -17791 17792 0
-350 -17792 17793 0
-351 -17793 17794 0
-352 -17794 17795 0
-353 -17795 17796 0
-354 -17796 17797 0
-355 -17797 17798 0
-356 -17798 17799 0
-357 -17799 17800 0
-358 -17800 17801 0
-359 -17801 17802 0
-360 -17802 17803 0
-361 -17803 17804 0
-362 -17804 17805 0
-363 -17805 17806 0
-364 -17806 17807 0
-365 -17807 17808 0
-366 -17808 17809 0
-367 -17809 17810 0
-368 -17810 17811 0
-369 -17811 17812 0
-370 -17812 17813 0
-371 -17813 17814 0
-372 -17814 17815 0
-373 -17815 17816 0
-374 -17816 17817 0
-375 -17817 17818 0
-376 -17818 17819 0
-377 -17819 0
-2 234 0
-17820 -2 234 0
-17820 2 -234 0
17820 2 234 0
17820 -2 -234 0
-17820 -3 145 0
-17821 17820 0
-17821 -3 145 0
-17821 3 -145 0
17821 -17820 3 145 0
17821 -17820 -3 -145 0
-17821 -4 90 0
-17822 17821 0
-17822 -4 90 0
-17822 4 -90 0
17822 -17821 4 90 0
17822 -17821 -4 -90 0
-17822 -5 323 0
-17823 17822 0
-17823 -5 323 0
-17823 5 -323 0
17823 -17822 5 323 0
17823 -17822 -5 -323 0
-17823 -6 56 0
-17824 17823 0
-17824 -6 56 0
-17824 6 -56 0
17824 -17823 6 56 0
17824 -17823 -6 -56 0
-17824 -7 289 0
-17825 17824 0
-17825 -7 289 0
-17825 7 -289 0
17825 -17824 7 289 0
17825 -17824 -7 -289 0
-17825 -8 200 0
-17826 17825 0
-17826 -8 200 0
-17826 8 -200 0
17826 -17825 8 200 0
17826 -17825 -8 -200 0
-17826 -9 35 0
-17827 17826 0
-17827 -9 35 0
-17827 9 -35 0
17827 -17826 9 35 0
17827 -17826 -9 -35 0
-17827 -10 268 0
-17828 17827 0
-17828 -10 268 0
-17828 10 -268 0
17828 -17827 10 268 0
17828 -17827 -10 -268 0
-17828 -11 179 0
-17829 17828 0
-17829 -11 179 0
-17829 11 -179 0
17829 -17828 11 179 0
17829 -17828 -11 -179 0
-17829 -12 124 0
-17830 17829 0
-17830 -12 124 0
-17830 12 -124 0
17830 -17829 12 124 0
17830 -17829 -12 -124 0
-17830 -13 357 0
-17831 17830 0
-17831 -13 357 0
-17831 13 -357 0
17831 -17830 13 357 0
17831 -17830 -13 -357 0
-17831 -14 22 0
-17832 17831 0
-17832 -14 22 0
-17832 14 -22 0
17832 -17831 14 22 0
17832 -17831 -14 -22 0
-17832 -15 255 0
-17833 17832 0
-17833 -15 255 0
-17833 15 -255 0
17833 -17832 15 255 0
17833 -17832 -15 -255 0
-17833 -16 166 0
-17834 17833 0
-17834 -16 166 0
-17834 16 -166 0
17834 -17833 16 166 0
17834 -17833 -16 -166 0
-17834 -17 111 0
-17835 17834 0
-17835 -17 111 0
-17835 17 -111 0
17835 -17834 17 111 0
17835 -17834 -17 -111 0
-17835 -18 344 0
-17836 17835 0
-17836 -18 344 0
-17836 18 -344 0
17836 -17835 18 344 0
17836 -17835 -18 -344 0
-17836 -19 77 0
-17837 17836 0
-17837 -19 77 0
-17837 19 -77 0
17837 -17836 19 77 0
17837 -17836 -19 -77 0
-17837 -20 310 0
-17838 17837 0
-17838 -20 310 0
-17838 20 -310 0
17838 -17837 20 310 0
17838 -17837 -20 -310 0
-17838 -21 221 0
-17839 17838 0
-17839 -21 221 0
-17839 21 -221 0
17839 -17838 21 221 0
17839 -17838 -21 -221 0
-17839 -22 14 0
-17840 17839 0
-17840 -22 14 0
-17840 22 -14 0
17840 -17839 22 14 0
17840 -17839 -22 -14 0
-17840 -23 247 0
-17841 17840 0
-17841 -23 247 0
-17841 23 -247 0
17841 -17840 23 247 0
17841 -17840 -23 -247 0
-17841 -24 158 0
-17842 17841 0
-17842 -24 158 0
-17842 24 -158 0
17842 -17841 24 158 0
17842 -17841 -24 -158 0
-17842 -25 103 0
-17843 17842 0
-17843 -25 103 0
-17843 25 -103 0
17843 -17842 25 103 0
17843 -17842 -25 -103 0
-17843 -26 336 0
-17844 17843 0
-17844 -26 336 0
-17844 26 -336 0
17844 -17843 26 336 0
17844 -17843 -26 -336 0
-17844 -27 69 0
-17845 17844 0
-17845 -27 69 0
-17845 27 -69 0
17845 -17844 27 69 0
17845 -17844 -27 -69 0
-17845 -28 302 0
-17846 17845 0
-17846 -28 302 0
-17846 28 -302 0
17846 -17845 28 302 0
17846 -17845 -28 -302 0
-17846 -29 213 0
-17847 17846 0
-17847 -29 213 0
-17847 29 -213 0
17847 -17846 29 213 0
17847 -17846 -29 -213 0
-17847 -30 48 0
-17848 17847 0
-17848 -30 48 0
-17848 30 -48 0
17848 -17847 30 48 0
17848 -17847 -30 -48 0
-17848 -31 281 0
-17849 17848 0
-17849 -31 281 0
-17849 31 -281 0
17849 -17848 31 281 0
17849 -17848 -31 -281 0
-17849 -32 192 0
-17850 17849 0
-17850 -32 192 0
-17850 32 -192 0
17850 -17849 32 192 0
17850 -17849 -32 -192 0
-17850 -33 137 0
-17851 17850 0
-17851 -33 137 0
-17851 33 -137 0
17851 -17850 33 137 0
17851 -17850 -33 -137 0
-17851 -34 370 0
-17852 17851 0
-17852 -34 370 0
-17852 34 -370 0
17852 -17851 34 370 0
17852 -17851 -34 -370 0
-17852 -35 9 0
-17853 17852 0
-17853 -35 9 0
-17853 35 -9 0
17853 -17852 35 9 0
17853 -17852 -35 -9 0
-17853 -36 242 0
-17854 17853 0
-17854 -36 242 0
-17854 36 -242 0
17854 -17853 36 242 0
17854 -17853 -36 -242 0
-17854 -37 153 0
-17855 17854 0
-17855 -37 153 0
-17855 37 -153 0
17855 -17854 37 153 0
17855 -17854 -37 -153 0
-17855 -38 98 0
-17856 17855 0
-17856 -38 98 0
-17856 38 -98 0
17856 -17855 38 98 0
17856 -17855 -38 -98 0
-17856 -39 331 0
-17857 17856 0
-17857 -39 331 0
-17857 39 -331 0
17857 -17856 39 331 0
17857 -17856 -39 -331 0
-17857 -40 64 0
-17858 17857 0
-17858 -40 64 0
-17858 40 -64 0
17858 -17857 40 64 0
17858 -17857 -40 -64 0
-17858 -41 297 0
-17859 17858 0
-17859 -41 297 0
-17859 41 -297 0
17859 -17858 41 297 0
17859 -17858 -41 -297 0
-17859 -42 208 0
-17860 17859 0
-17860 -42 208 0
-17860 42 -208 0
17860 -17859 42 208 0
17860 -17859 -42 -208 0
-17860 -44 276 0
-17861 17860 0
-17861 -44 276 0
-17861 44 -276 0
17861 -17860 44 276 0
17861 -17860 -44 -276 0
-17861 -45 187 0
-17862 17861 0
-17862 -45 187 0
-17862 45 -187 0
17862 -17861 45 187 0
17862 -17861 -45 -187 0
-17862 -46 132 0
-17863 17862 0
-17863 -46 132 0
-17863 46 -132 0
17863 -17862 46 132 0
17863 -17862 -46 -132 0
-17863 -47 365 0
-17864 17863 0
-17864 -47 365 0
-17864 47 -365 0
17864 -17863 47 365 0
17864 -17863 -47 -365 0
-17864 -48 30 0
-17865 17864 0
-17865 -48 30 0
-17865 48 -30 0
17865 -17864 48 30 0
17865 -17864 -48 -30 0
-17865 -49 263 0
-17866 17865 0
-17866 -49 263 0
-17866 49 -263 0
17866 -17865 49 263 0
17866 -17865 -49 -263 0
-17866 -50 174 0
-17867 17866 0
-17867 -50 174 0
-17867 50 -174 0
17867 -17866 50 174 0
17867 -17866 -50 -174 0
-17867 -51 119 0
-17868 17867 0
-17868 -51 119 0
-17868 51 -119 0
17868 -17867 51 119 0
17868 -17867 -51 -119 0
-17868 -52 352 0
-17869 17868 0
-17869 -52 352 0
-17869 52 -352 0
17869 -17868 52 352 0
17869 -17868 -52 -352 0
-17869 -53 85 0
-17870 17869 0
-17870 -53 85 0
-17870 53 -85 0
17870 -17869 53 85 0
17870 -17869 -53 -85 0
-17870 -54 318 0
-17871 17870 0
-17871 -54 318 0
-17871 54 -318 0
17871 -17870 54 318 0
17871 -17870 -54 -318 0
-17871 -55 229 0
-17872 17871 0
-17872 -55 229 0
-17872 55 -229 0
17872 -17871 55 229 0
17872 -17871 -55 -229 0
-17872 -56 6 0
-17873 17872 0
-17873 -56 6 0
-17873 56 -6 0
17873 -17872 56 6 0
17873 -17872 -56 -6 0
-17873 -57 239 0
-17874 17873 0
-17874 -57 239 0
-17874 57 -239 0
17874 -17873 57 239 0
17874 -17873 -57 -239 0
-17874 -58 150 0
-17875 17874 0
-17875 -58 150 0
-17875 58 -150 0
17875 -17874 58 150 0
17875 -17874 -58 -150 0
-17875 -59 95 0
-17876 17875 0
-17876 -59 95 0
-17876 59 -95 0
17876 -17875 59 95 0
17876 -17875 -59 -95 0
-17876 -60 328 0
-17877 17876 0
-17877 -60 328 0
-17877 60 -328 0
17877 -17876 60 328 0
17877 -17876 -60 -328 0
-17877 -62 294 0
-17878 17877 0
-17878 -62 294 0
-17878 62 -294 0
17878 -17877 62 294 0
17878 -17877 -62 -294 0
-17878 -63 205 0
-17879 17878 0
-17879 -63 205 0
-17879 63 -205 0
17879 -17878 63 205 0
17879 -17878 -63 -205 0
-17879 -64 40 0
-17880 17879 0
-17880 -64 40 0
-17880 64 -40 0
17880 -17879 64 40 0
17880 -17879 -64 -40 0
-17880 -65 273 0
-17881 17880 0
-17881 -65 273 0
-17881 65 -273 0
17881 -17880 65 273 0
17881 -17880 -65 -273 0
-17881 -66 184 0
-17882 17881 0
-17882 -66 184 0
-17882 66 -184 0
17882 -17881 66 184 0
17882 -17881 -66 -184 0
-17882 -67 129 0
-17883 17882 0
-17883 -67 129 0
-17883 67 -129 0
17883 -17882 67 129 0
17883 -17882 -67 -129 0
-17883 -68 362 0
-17884 17883 0
-17884 -68 362 0
-17884 68 -362 0
17884 -17883 68 362 0
17884 -17883 -68 -362 0
-17884 -69 27 0
-17885 17884 0
-17885 -69 27 0
-17885 69 -27 0
17885 -17884 69 27 0
17885 -17884 -69 -27 0
-17885 -70 260 0
-17886 17885 0
-17886 -70 260 0
-17886 70 -260 0
17886 -17885 70 260 0
17886 -17885 -70 -260 0
-17886 -71 171 0
-17887 17886 0
-17887 -71 171 0
-17887 71 -171 0
17887 -17886 71 171 0
17887 -17886 -71 -171 0
-17887 -72 116 0
-17888 17887 0
-17888 -72 116 0
-17888 72 -116 0
17888 -17887 72 116 0
17888 -17887 -72 -116 0
-17888 -73 349 0
-17889 17888 0
-17889 -73 349 0
-17889 73 -349 0
17889 -17888 73 349 0
17889 -17888 -73 -349 0
-17889 -74 82 0
-17890 17889 0
-17890 -74 82 0
-17890 74 -82 0
17890 -17889 74 82 0
17890 -17889 -74 -82 0
-17890 -75 315 0
-17891 17890 0
-17891 -75 315 0
-17891 75 -315 0
17891 -17890 75 315 0
17891 -17890 -75 -315 0
-17891 -76 226 0
-17892 17891 0
-17892 -76 226 0
-17892 76 -226 0
17892 -17891 76 226 0
17892 -17891 -76 -226 0
-17892 -77 19 0
-17893 17892 0
-17893 -77 19 0
-17893 77 -19 0
17893 -17892 77 19 0
17893 -17892 -77 -19 0
-17893 -78 252 0
-17894 17893 0
-17894 -78 252 0
-17894 78 -252 0
17894 -17893 78 252 0
17894 -17893 -78 -252 0
-17894 -79 163 0
-17895 17894 0
-17895 -79 163 0
-17895 79 -163 0
17895 -17894 79 163 0
17895 -17894 -79 -163 0
-17895 -80 108 0
-17896 17895 0
-17896 -80 108 0
-17896 80 -108 0
17896 -17895 80 108 0
17896 -17895 -80 -108 0
-17896 -81 341 0
-17897 17896 0
-17897 -81 341 0
-17897 81 -341 0
17897 -17896 81 341 0
17897 -17896 -81 -341 0
-17897 -82 74 0
-17898 17897 0
-17898 -82 74 0
-17898 82 -74 0
17898 -17897 82 74 0
17898 -17897 -82 -74 0
-17898 -83 307 0
-17899 17898 0
-17899 -83 307 0
-17899 83 -307 0
17899 -17898 83 307 0
17899 -17898 -83 -307 0
-17899 -84 218 0
-17900 17899 0
-17900 -84 218 0
-17900 84 -218 0
17900 -17899 84 218 0
17900 -17899 -84 -218 0
-17900 -85 53 0
-17901 17900 0
-17901 -85 53 0
-17901 85 -53 0
17901 -17900 85 53 0
17901 -17900 -85 -53 0
-17901 -86 286 0
-17902 17901 0
-17902 -86 286 0
-17902 86 -286 0
17902 -17901 86 286 0
17902 -17901 -86 -286 0
-17902 -87 197 0
-17903 17902 0
-17903 -87 197 0
-17903 87 -197 0
17903 -17902 87 197 0
17903 -17902 -87 -197 0
-17903 -88 142 0
-17904 17903 0
-17904 -88 142 0
-17904 88 -142 0
17904 -17903 88 142 0
17904 -17903 -88 -142 0
-17904 -89 375 0
-17905 17904 0
-17905 -89 375 0
-17905 89 -375 0
17905 -17904 89 375 0
17905 -17904 -89 -375 0
-17905 -90 4 0
-17906 17905 0
-17906 -90 4 0
-17906 90 -4 0
17906 -17905 90 4 0
17906 -17905 -90 -4 0
-17906 -91 237 0
-17907 17906 0
-17907 -91 237 0
-17907 91 -237 0
17907 -17906 91 237 0
17907 -17906 -91 -237 0
-17907 -92 148 0
-17908 17907 0
-17908 -92 148 0
-17908 92 -148 0
17908 -17907 92 148 0
17908 -17907 -92 -148 0
-17908 -94 326 0
-17909 17908 0
-17909 -94 326 0
-17909 94 -326 0
17909 -17908 94 326 0
17909 -17908 -94 -326 0
-17909 -95 59 0
-17910 17909 0
-17910 -95 59 0
-17910 95 -59 0
17910 -17909 95 59 0
17910 -17909 -95 -59 0
-17910 -96 292 0
-17911 17910 0
-17911 -96 292 0
-17911 96 -292 0
17911 -17910 96 292 0
17911 -17910 -96 -292 0
-17911 -97 203 0
-17912 17911 0
-17912 -97 203 0
-17912 97 -203 0
17912 -17911 97 203 0
17912 -17911 -97 -203 0
-17912 -98 38 0
-17913 17912 0
-17913 -98 38 0
-17913 98 -38 0
17913 -17912 98 38 0
17913 -17912 -98 -38 0
-17913 -99 271 0
-17914 17913 0
-17914 -99 271 0
-17914 99 -271 0
17914 -17913 99 271 0
17914 -17913 -99 -271 0
-17914 -100 182 0
-17915 17914 0
-17915 -100 182 0
-17915 100 -182 0
17915 -17914 100 182 0
17915 -17914 -100 -182 0
-17915 -101 127 0
-17916 17915 0
-17916 -101 127 0
-17916 101 -127 0
17916 -17915 101 127 0
17916 -17915 -101 -127 0
-17916 -102 360 0
-17917 17916 0
-17917 -102 360 0
-17917 102 -360 0
17917 -17916 102 360 0
17917 -17916 -102 -360 0
-17917 -103 25 0
-17918 17917 0
-17918 -103 25 0
-17918 103 -25 0
17918 -17917 103 25 0
17918 -17917 -103 -25 0
-17918 -104 258 0
-17919 17918 0
-17919 -104 258 0
-17919 104 -258 0
17919 -17918 104 258 0
17919 -17918 -104 -258 0
-17919 -105 169 0
-17920 17919 0
-17920 -105 169 0
-17920 105 -169 0
17920 -17919 105 169 0
17920 -17919 -105 -169 0
-17920 -106 114 0
-17921 17920 0
-17921 -106 114 0
-17921 106 -114 0
17921 -17920 106 114 0
17921 -17920 -106 -114 0
-17921 -107 347 0
-17922 17921 0
-17922 -107 347 0
-17922 107 -347 0
17922 -17921 107 347 0
17922 -17921 -107 -347 0
-17922 -108 80 0
-17923 17922 0
-17923 -108 80 0
-17923 108 -80 0
17923 -17922 108 80 0
17923 -17922 -108 -80 0
-17923 -109 313 0
-17924 17923 0
-17924 -109 313 0
-17924 109 -313 0
17924 -17923 109 313 0
17924 -17923 -109 -313 0
-17924 -110 224 0
-17925 17924 0
-17925 -110 224 0
-17925 110 -224 0
17925 -17924 110 224 0
17925 -17924 -110 -224 0
-17925 -111 17 0
-17926 17925 0
-17926 -111 17 0
-17926 111 -17 0
17926 -17925 111 17 0
17926 -17925 -111 -17 0
-17926 -112 250 0
-17927 17926 0
-17927 -112 250 0
-17927 112 -250 0
17927 -17926 112 250 0
17927 -17926 -112 -250 0
-17927 -113 161 0
-17928 17927 0
-17928 -113 161 0
-17928 113 -161 0
17928 -17927 113 161 0
17928 -17927 -113 -161 0
-17928 -114 106 0
-17929 17928 0
-17929 -114 106 0
-17929 114 -106 0
17929 -17928 114 106 0
17929 -17928 -114 -106 0
-17929 -115 339 0
-17930 17929 0
-17930 -115 339 0
-17930 115 -339 0
17930 -17929 115 339 0
17930 -17929 -115 -339 0
-17930 -116 72 0
-17931 17930 0
-17931 -116 72 0
-17931 116 -72 0
17931 -17930 116 72 0
17931 -17930 -116 -72 0
-17931 -117 305 0
-17932 17931 0
-17932 -117 305 0
-17932 117 -305 0
17932 -17931 117 305 0
17932 -17931 -117 -305 0
-17932 -118 216 0
-17933 17932 0
-17933 -118 216 0
-17933 118 -216 0
17933 -17932 118 216 0
17933 -17932 -118 -216 0
-17933 -119 51 0
-17934 17933 0
-17934 -119 51 0
-17934 119 -51 0
17934 -17933 119 51 0
17934 -17933 -119 -51 0
-17934 -120 284 0
-17935 17934 0
-17935 -120 284 0
-17935 120 -284 0
17935 -17934 120 284 0
17935 -17934 -120 -284 0
-17935 -121 195 0
-17936 17935 0
-17936 -121 195 0
-17936 121 -195 0
17936 -17935 121 195 0
17936 -17935 -121 -195 0
-17936 -122 140 0
-17937 17936 0
-17937 -122 140 0
-17937 122 -140 0
17937 -17936 122 140 0
17937 -17936 -122 -140 0
-17937 -123 373 0
-17938 17937 0
-17938 -123 373 0
-17938 123 -373 0
17938 -17937 123 373 0
17938 -17937 -123 -373 0
-17938 -124 12 0
-17939 17938 0
-17939 -124 12 0
-17939 124 -12 0
17939 -17938 124 12 0
17939 -17938 -124 -12 0
-17939 -125 245 0
-17940 17939 0
-17940 -125 245 0
-17940 125 -245 0
17940 -17939 125 245 0
17940 -17939 -125 -245 0
-17940 -126 156 0
-17941 17940 0
-17941 -126 156 0
-17941 126 -156 0
17941 -17940 126 156 0
17941 -17940 -126 -156 0
-17941 -127 101 0
-17942 17941 0
-17942 -127 101 0
-17942 127 -101 0
17942 -17941 127 101 0
17942 -17941 -127 -101 0
-17942 -128 334 0
-17943 17942 0
-17943 -128 334 0
-17943 128 -334 0
17943 -17942 128 334 0
17943 -17942 -128 -334 0
-17943 -129 67 0
-17944 17943 0
-17944 -129 67 0
-17944 129 -67 0
17944 -17943 129 67 0
17944 -17943 -129 -67 0
-17944 -130 300 0
-17945 17944 0
-17945 -130 300 0
-17945 130 -300 0
17945 -17944 130 300 0
17945 -17944 -130 -300 0
-17945 -131 211 0
-17946 17945 0
-17946 -131 211 0
-17946 131 -211 0
17946 -17945 131 211 0
17946 -17945 -131 -211 0
-17946 -132 46 0
-17947 17946 0
-17947 -132 46 0
-17947 132 -46 0
17947 -17946 132 46 0
17947 -17946 -132 -46 0
-17947 -133 279 0
-17948 17947 0
-17948 -133 279 0
-17948 133 -279 0
17948 -17947 133 279 0
17948 -17947 -133 -279 0
-17948 -134 190 0
-17949 17948 0
-17949 -134 190 0
-17949 134 -190 0
17949 -17948 134 190 0
17949 -17948 -134 -190 0
-17949 -136 368 0
-17950 17949 0
-17950 -136 368 0
-17950 136 -368 0
17950 -17949 136 368 0
17950 -17949 -136 -368 0
-17950 -137 33 0
-17951 17950 0
-17951 -137 33 0
-17951 137 -33 0
17951 -17950 137 33 0
17951 -17950 -137 -33 0
-17951 -138 266 0
-17952 17951 0
-17952 -138 266 0
-17952 138 -266 0
17952 -17951 138 266 0
17952 -17951 -138 -266 0
-17952 -139 177 0
-17953 17952 0
-17953 -139 177 0
-17953 139 -177 0
17953 -17952 139 177 0
17953 -17952 -139 -177 0
-17953 -140 122 0
-17954 17953 0
-17954 -140 122 0
-17954 140 -122 0
17954 -17953 140 122 0
17954 -17953 -140 -122 0
-17954 -141 355 0
-17955 17954 0
-17955 -141 355 0
-17955 141 -355 0
17955 -17954 141 355 0
17955 -17954 -141 -355 0
-17955 -142 88 0
-17956 17955 0
-17956 -142 88 0
-17956 142 -88 0
17956 -17955 142 88 0
17956 -17955 -142 -88 0
-17956 -143 321 0
-17957 17956 0
-17957 -143 321 0
-17957 143 -321 0
17957 -17956 143 321 0
17957 -17956 -143 -321 0
-17957 -144 232 0
-17958 17957 0
-17958 -144 232 0
-17958 144 -232 0
17958 -17957 144 232 0
17958 -17957 -144 -232 0
-17958 -145 3 0
-17959 17958 0
-17959 -145 3 0
-17959 145 -3 0
17959 -17958 145 3 0
17959 -17958 -145 -3 0
-17959 -146 236 0
-17960 17959 0
-17960 -146 236 0
-17960 146 -236 0
17960 -17959 146 236 0
17960 -17959 -146 -236 0
-17960 -148 92 0
-17961 17960 0
-17961 -148 92 0
-17961 148 -92 0
17961 -17960 148 92 0
17961 -17960 -148 -92 0
-17961 -149 325 0
-17962 17961 0
-17962 -149 325 0
-17962 149 -325 0
17962 -17961 149 325 0
17962 -17961 -149 -325 0
-17962 -150 58 0
-17963 17962 0
-17963 -150 58 0
-17963 150 -58 0
17963 -17962 150 58 0
17963 -17962 -150 -58 0
-17963 -151 291 0
-17964 17963 0
-17964 -151 291 0
-17964 151 -291 0
17964 -17963 151 291 0
17964 -17963 -151 -291 0
-17964 -152 202 0
-17965 17964 0
-17965 -152 202 0
-17965 152 -202 0
17965 -17964 152 202 0
17965 -17964 -152 -202 0
-17965 -153 37 0
-17966 17965 0
-17966 -153 37 0
-17966 153 -37 0
17966 -17965 153 37 0
17966 -17965 -153 -37 0
-17966 -154 270 0
-17967 17966 0
-17967 -154 270 0
-17967 154 -270 0
17967 -17966 154 270 0
17967 -17966 -154 -270 0
-17967 -155 181 0
-17968 17967 0
-17968 -155 181 0
-17968 155 -181 0
17968 -17967 155 181 0
17968 -17967 -155 -181 0
-17968 -156 126 0
-17969 17968 0
-17969 -156 126 0
-17969 156 -126 0
17969 -17968 156 126 0
17969 -17968 -156 -126 0
-17969 -157 359 0
-17970 17969 0
-17970 -157 359 0
-17970 157 -359 0
17970 -17969 157 359 0
17970 -17969 -157 -359 0
-17970 -158 24 0
-17971 17970 0
-17971 -158 24 0
-17971 158 -24 0
17971 -17970 158 24 0
17971 -17970 -158 -24 0
-17971 -159 257 0
-17972 17971 0
-17972 -159 257 0
-17972 159 -257 0
17972 -17971 159 257 0
17972 -17971 -159 -257 0
-17972 -160 168 0
-17973 17972 0
-17973 -160 168 0
-17973 160 -168 0
17973 -17972 160 168 0
17973 -17972 -160 -168 0
-17973 -161 113 0
-17974 17973 0
-17974 -161 113 0
-17974 161 -113 0
17974 -17973 161 113 0
17974 -17973 -161 -113 0
-17974 -162 346 0
-17975 17974 0
-17975 -162 346 0
-17975 162 -346 0
17975 -17974 162 346 0
17975 -17974 -162 -346 0
-17975 -163 79 0
-17976 17975 0
-17976 -163 79 0
-17976 163 -79 0
17976 -17975 163 79 0
17976 -17975 -163 -79 0
-17976 -164 312 0
-17977 17976 0
-17977 -164 312 0
-17977 164 -312 0
17977 -17976 164 312 0
17977 -17976 -164 -312 0
-17977 -165 223 0
-17978 17977 0
-17978 -165 223 0
-17978 165 -223 0
17978 -17977 165 223 0
17978 -17977 -165 -223 0
-17978 -166 16 0
-17979 17978 0
-17979 -166 16 0
-17979 166 -16 0
17979 -17978 166 16 0
17979 -17978 -166 -16 0
-17979 -167 249 0
-17980 17979 0
-17980 -167 249 0
-17980 167 -249 0
17980 -17979 167 249 0
17980 -17979 -167 -249 0
-17980 -168 160 0
-17981 17980 0
-17981 -168 160 0
-17981 168 -160 0
17981 -17980 168 160 0
17981 -17980 -168 -160 0
-17981 -169 105 0
-17982 17981 0
-17982 -169 105 0
-17982 169 -105 0
17982 -17981 169 105 0
17982 -17981 -169 -105 0
-17982 -170 338 0
-17983 17982 0
-17983 -170 338 0
-17983 170 -338 0
17983 -17982 170 338 0
17983 -17982 -170 -338 0
-17983 -171 71 0
-17984 17983 0
-17984 -171 71 0
-17984 171 -71 0
17984 -17983 171 71 0
17984 -17983 -171 -71 0
-17984 -172 304 0
-17985 17984 0
-17985 -172 304 0
-17985 172 -304 0
17985 -17984 172 304 0
17985 -17984 -172 -304 0
-17985 -173 215 0
-17986 17985 0
-17986 -173 215 0
-17986 173 -215 0
17986 -17985 173 215 0
17986 -17985 -173 -215 0
-17986 -174 50 0
-17987 17986 0
-17987 -174 50 0
-17987 174 -50 0
17987 -17986 174 50 0
17987 -17986 -174 -50 0
-17987 -175 283 0
-17988 17987 0
-17988 -175 283 0
-17988 175 -283 0
17988 -17987 175 283 0
17988 -17987 -175 -283 0
-17988 -176 194 0
-17989 17988 0
-17989 -176 194 0
-17989 176 -194 0
17989 -17988 176 194 0
17989 -17988 -176 -194 0
-17989 -177 139 0
-17990 17989 0
-17990 -177 139 0
-17990 177 -139 0
17990 -17989 177 139 0
17990 -17989 -177 -139 0
-17990 -178 372 0
-17991 17990 0
-17991 -178 372 0
-17991 178 -372 0
17991 -17990 178 372 0
17991 -17990 -178 -372 0
-17991 -179 11 0
-17992 17991 0
-17992 -179 11 0
-17992 179 -11 0
17992 -17991 179 11 0
17992 -17991 -179 -11 0
-17992 -180 244 0
-17993 17992 0
-17993 -180 244 0
-17993 180 -244 0
17993 -17992 180 244 0
17993 -17992 -180 -244 0
-17993 -181 155 0
-17994 17993 0
-17994 -181 155 0
-17994 181 -155 0
17994 -17993 181 155 0
17994 -17993 -181 -155 0
-17994 -182 100 0
-17995 17994 0
-17995 -182 100 0
-17995 182 -100 0
17995 -17994 182 100 0
17995 -17994 -182 -100 0
-17995 -183 333 0
-17996 17995 0
-17996 -183 333 0
-17996 183 -333 0
17996 -17995 183 333 0
17996 -17995 -183 -333 0
-17996 -184 66 0
-17997 17996 0
-17997 -184 66 0
-17997 184 -66 0
17997 -17996 184 66 0
17997 -17996 -184 -66 0
-17997 -185 299 0
-17998 17997 0
-17998 -185 299 0
-17998 185 -299 0
17998 -17997 185 299 0
17998 -17997 -185 -299 0
-17998 -186 210 0
-17999 17998 0
-17999 -186 210 0
-17999 186 -210 0
17999 -17998 186 210 0
17999 -17998 -186 -210 0
-17999 -187 45 0
-18000 17999 0
-18000 -187 45 0
-18000 187 -45 0
18000 -17999 187 45 0
18000 -17999 -187 -45 0
-18000 -188 278 0
-18001 18000 0
-18001 -188 278 0
-18001 188 -278 0
18001 -18000 188 278 0
18001 -18000 -188 -278 0
-18001 -190 134 0
-18002 18001 0
-18002 -190 134 0
-18002 190 -134 0
18002 -18001 190 134 0
18002 -18001 -190 -134 0
-18002 -191 367 0
-18003 18002 0
-18003 -191 367 0
-18003 191 -367 0
18003 -18002 191 367 0
18003 -18002 -191 -367 0
-18003 -192 32 0
-18004 18003 0
-18004 -192 32 0
-18004 192 -32 0
18004 -18003 192 32 0
18004 -18003 -192 -32 0
-18004 -193 265 0
-18005 18004 0
-18005 -193 265 0
-18005 193 -265 0
18005 -18004 193 265 0
18005 -18004 -193 -265 0
-18005 -194 176 0
-18006 18005 0
-18006 -194 176 0
-18006 194 -176 0
18006 -18005 194 176 0
18006 -18005 -194 -176 0
-18006 -195 121 0
-18007 18006 0
-18007 -195 121 0
-18007 195 -121 0
18007 -18006 195 121 0
18007 -18006 -195 -121 0
-18007 -196 354 0
-18008 18007 0
-18008 -196 354 0
-18008 196 -354 0
18008 -18007 196 354 0
18008 -18007 -196 -354 0
-18008 -197 87 0
-18009 18008 0
-18009 -197 87 0
-18009 197 -87 0
18009 -18008 197 87 0
18009 -18008 -197 -87 0
-18009 -198 320 0
-18010 18009 0
-18010 -198 320 0
-18010 198 -320 0
18010 -18009 198 320 0
18010 -18009 -198 -320 0
-18010 -199 231 0
-18011 18010 0
-18011 -199 231 0
-18011 199 -231 0
18011 -18010 199 231 0
18011 -18010 -199 -231 0
-18011 -200 8 0
-18012 18011 0
-18012 -200 8 0
-18012 200 -8 0
18012 -18011 200 8 0
18012 -18011 -200 -8 0
-18012 -201 241 0
-18013 18012 0
-18013 -201 241 0
-18013 201 -241 0
18013 -18012 201 241 0
18013 -18012 -201 -241 0
-18013 -202 152 0
-18014 18013 0
-18014 -202 152 0
-18014 202 -152 0
18014 -18013 202 152 0
18014 -18013 -202 -152 0
-18014 -203 97 0
-18015 18014 0
-18015 -203 97 0
-18015 203 -97 0
18015 -18014 203 97 0
18015 -18014 -203 -97 0
-18015 -204 330 0
-18016 18015 0
-18016 -204 330 0
-18016 204 -330 0
18016 -18015 204 330 0
18016 -18015 -204 -330 0
-18016 -205 63 0
-18017 18016 0
-18017 -205 63 0
-18017 205 -63 0
18017 -18016 205 63 0
18017 -18016 -205 -63 0
-18017 -206 296 0
-18018 18017 0
-18018 -206 296 0
-18018 206 -296 0
18018 -18017 206 296 0
18018 -18017 -206 -296 0
-18018 -208 42 0
-18019 18018 0
-18019 -208 42 0
-18019 208 -42 0
18019 -18018 208 42 0
18019 -18018 -208 -42 0
-18019 -209 275 0
-18020 18019 0
-18020 -209 275 0
-18020 209 -275 0
18020 -18019 209 275 0
18020 -18019 -209 -275 0
-18020 -210 186 0
-18021 18020 0
-18021 -210 186 0
-18021 210 -186 0
18021 -18020 210 186 0
18021 -18020 -210 -186 0
-18021 -211 131 0
-18022 18021 0
-18022 -211 131 0
-18022 211 -131 0
18022 -18021 211 131 0
18022 -18021 -211 -131 0
-18022 -212 364 0
-18023 18022 0
-18023 -212 364 0
-18023 212 -364 0
18023 -18022 212 364 0
18023 -18022 -212 -364 0
-18023 -213 29 0
-18024 18023 0
-18024 -213 29 0
-18024 213 -29 0
18024 -18023 213 29 0
18024 -18023 -213 -29 0
-18024 -214 262 0
-18025 18024 0
-18025 -214 262 0
-18025 214 -262 0
18025 -18024 214 262 0
18025 -18024 -214 -262 0
-18025 -215 173 0
-18026 18025 0
-18026 -215 173 0
-18026 215 -173 0
18026 -18025 215 173 0
18026 -18025 -215 -173 0
-18026 -216 118 0
-18027 18026 0
-18027 -216 118 0
-18027 216 -118 0
18027 -18026 216 118 0
18027 -18026 -216 -118 0
-18027 -217 351 0
-18028 18027 0
-18028 -217 351 0
-18028 217 -351 0
18028 -18027 217 351 0
18028 -18027 -217 -351 0
-18028 -218 84 0
-18029 18028 0
-18029 -218 84 0
-18029 218 -84 0
18029 -18028 218 84 0
18029 -18028 -218 -84 0
-18029 -219 317 0
-18030 18029 0
-18030 -219 317 0
-18030 219 -317 0
18030 -18029 219 317 0
18030 -18029 -219 -317 0
-18030 -220 228 0
-18031 18030 0
-18031 -220 228 0
-18031 220 -228 0
18031 -18030 220 228 0
18031 -18030 -220 -228 0
-18031 -221 21 0
-18032 18031 0
-18032 -221 21 0
-18032 221 -21 0
18032 -18031 221 21 0
18032 -18031 -221 -21 0
-18032 -222 254 0
-18033 18032 0
-18033 -222 254 0
-18033 222 -254 0
18033 -18032 222 254 0
18033 -18032 -222 -254 0
-18033 -223 165 0
-18034 18033 0
-18034 -223 165 0
-18034 223 -165 0
18034 -18033 223 165 0
18034 -18033 -223 -165 0
-18034 -224 110 0
-18035 18034 0
-18035 -224 110 0
-18035 224 -110 0
18035 -18034 224 110 0
18035 -18034 -224 -110 0
-18035 -225 343 0
-18036 18035 0
-18036 -225 343 0
-18036 225 -343 0
18036 -18035 225 343 0
18036 -18035 -225 -343 0
-18036 -226 76 0
-18037 18036 0
-18037 -226 76 0
-18037 226 -76 0
18037 -18036 226 76 0
18037 -18036 -226 -76 0
-18037 -227 309 0
-18038 18037 0
-18038 -227 309 0
-18038 227 -309 0
18038 -18037 227 309 0
18038 -18037 -227 -309 0
-18038 -228 220 0
-18039 18038 0
-18039 -228 220 0
-18039 228 -220 0
18039 -18038 228 220 0
18039 -18038 -228 -220 0
-18039 -229 55 0
-18040 18039 0
-18040 -229 55 0
-18040 229 -55 0
18040 -18039 229 55 0
18040 -18039 -229 -55 0
-18040 -230 288 0
-18041 18040 0
-18041 -230 288 0
-18041 230 -288 0
18041 -18040 230 288 0
18041 -18040 -230 -288 0
-18041 -231 199 0
-18042 18041 0
-18042 -231 199 0
-18042 231 -199 0
18042 -18041 231 199 0
18042 -18041 -231 -199 0
-18042 -232 144 0
-18043 18042 0
-18043 -232 144 0
-18043 232 -144 0
18043 -18042 232 144 0
18043 -18042 -232 -144 0
-18043 -233 377 0
-18044 18043 0
-18044 -233 377 0
-18044 233 -377 0
18044 -18043 233 377 0
18044 -18043 -233 -377 0
-18044 -234 2 0
-18045 18044 0
-18045 -234 2 0
-18045 234 -2 0
18045 -18044 234 2 0
18045 -18044 -234 -2 0
-18045 -236 146 0
-18046 18045 0
-18046 -236 146 0
-18046 236 -146 0
18046 -18045 236 146 0
18046 -18045 -236 -146 0
-18046 -237 91 0
-18047 18046 0
-18047 -237 91 0
-18047 237 -91 0
18047 -18046 237 91 0
18047 -18046 -237 -91 0
-18047 -238 324 0
-18048 18047 0
-18048 -238 324 0
-18048 238 -324 0
18048 -18047 238 324 0
18048 -18047 -238 -324 0
-18048 -239 57 0
-18049 18048 0
-18049 -239 57 0
-18049 239 -57 0
18049 -18048 239 57 0
18049 -18048 -239 -57 0
-18049 -240 290 0
-18050 18049 0
-18050 -240 290 0
-18050 240 -290 0
18050 -18049 240 290 0
18050 -18049 -240 -290 0
-18050 -241 201 0
-18051 18050 0
-18051 -241 201 0
-18051 241 -201 0
18051 -18050 241 201 0
18051 -18050 -241 -201 0
-18051 -242 36 0
-18052 18051 0
-18052 -242 36 0
-18052 242 -36 0
18052 -18051 242 36 0
18052 -18051 -242 -36 0
-18052 -243 269 0
-18053 18052 0
-18053 -243 269 0
-18053 243 -269 0
18053 -18052 243 269 0
18053 -18052 -243 -269 0
-18053 -244 180 0
-18054 18053 0
-18054 -244 180 0
-18054 244 -180 0
18054 -18053 244 180 0
18054 -18053 -244 -180 0
-18054 -245 125 0
-18055 18054 0
-18055 -245 125 0
-18055 245 -125 0
18055 -18054 245 125 0
18055 -18054 -245 -125 0
-18055 -246 358 0
-18056 18055 0
-18056 -246 358 0
-18056 246 -358 0
18056 -18055 246 358 0
18056 -18055 -246 -358 0
-18056 -247 23 0
-18057 18056 0
-18057 -247 23 0
-18057 247 -23 0
18057 -18056 247 23 0
18057 -18056 -247 -23 0
-18057 -248 256 0
-18058 18057 0
-18058 -248 256 0
-18058 248 -256 0
18058 -18057 248 256 0
18058 -18057 -248 -256 0
-18058 -249 167 0
-18059 18058 0
-18059 -249 167 0
-18059 249 -167 0
18059 -18058 249 167 0
18059 -18058 -249 -167 0
-18059 -250 112 0
-18060 18059 0
-18060 -250 112 0
-18060 250 -112 0
18060 -18059 250 112 0
18060 -18059 -250 -112 0
-18060 -251 345 0
-18061 18060 0
-18061 -251 345 0
-18061 251 -345 0
18061 -18060 251 345 0
18061 -18060 -251 -345 0
-18061 -252 78 0
-18062 18061 0
-18062 -252 78 0
-18062 252 -78 0
18062 -18061 252 78 0
18062 -18061 -252 -78 0
-18062 -253 311 0
-18063 18062 0
-18063 -253 311 0
-18063 253 -311 0
18063 -18062 253 311 0
18063 -18062 -253 -311 0
-18063 -254 222 0
-18064 18063 0
-18064 -254 222 0
-18064 254 -222 0
18064 -18063 254 222 0
18064 -18063 -254 -222 0
-18064 -255 15 0
-18065 18064 0
-18065 -255 15 0
-18065 255 -15 0
18065 -18064 255 15 0
18065 -18064 -255 -15 0
-18065 -256 248 0
-18066 18065 0
-18066 -256 248 0
-18066 256 -248 0
18066 -18065 256 248 0
18066 -18065 -256 -248 0
-18066 -257 159 0
-18067 18066 0
-18067 -257 159 0
-18067 257 -159 0
18067 -18066 257 159 0
18067 -18066 -257 -159 0
-18067 -258 104 0
-18068 18067 0
-18068 -258 104 0
-18068 258 -104 0
18068 -18067 258 104 0
18068 -18067 -258 -104 0
-18068 -259 337 0
-18069 18068 0
-18069 -259 337 0
-18069 259 -337 0
18069 -18068 259 337 0
18069 -18068 -259 -337 0
-18069 -260 70 0
-18070 18069 0
-18070 -260 70 0
-18070 260 -70 0
18070 -18069 260 70 0
18070 -18069 -260 -70 0
-18070 -261 303 0
-18071 18070 0
-18071 -261 303 0
-18071 261 -303 0
18071 -18070 261 303 0
18071 -18070 -261 -303 0
-18071 -262 214 0
-18072 18071 0
-18072 -262 214 0
-18072 262 -214 0
18072 -18071 262 214 0
18072 -18071 -262 -214 0
-18072 -263 49 0
-18073 18072 0
-18073 -263 49 0
-18073 263 -49 0
18073 -18072 263 49 0
18073 -18072 -263 -49 0
-18073 -264 282 0
-18074 18073 0
-18074 -264 282 0
-18074 264 -282 0
18074 -18073 264 282 0
18074 -18073 -264 -282 0
-18074 -265 193 0
-18075 18074 0
-18075 -265 193 0
-18075 265 -193 0
18075 -18074 265 193 0
18075 -18074 -265 -193 0
-18075 -266 138 0
-18076 18075 0
-18076 -266 138 0
-18076 266 -138 0
18076 -18075 266 138 0
18076 -18075 -266 -138 0
-18076 -267 371 0
-18077 18076 0
-18077 -267 371 0
-18077 267 -371 0
18077 -18076 267 371 0
18077 -18076 -267 -371 0
-18077 -268 10 0
-18078 18077 0
-18078 -268 10 0
-18078 268 -10 0
18078 -18077 268 10 0
18078 -18077 -268 -10 0
-18078 -269 243 0
-18079 18078 0
-18079 -269 243 0
-18079 269 -243 0
18079 -18078 269 243 0
18079 -18078 -269 -243 0
-18079 -270 154 0
-18080 18079 0
-18080 -270 154 0
-18080 270 -154 0
18080 -18079 270 154 0
18080 -18079 -270 -154 0
-18080 -271 99 0
-18081 18080 0
-18081 -271 99 0
-18081 271 -99 0
18081 -18080 271 99 0
18081 -18080 -271 -99 0
-18081 -272 332 0
-18082 18081 0
-18082 -272 332 0
-18082 272 -332 0
18082 -18081 272 332 0
18082 -18081 -272 -332 0
-18082 -273 65 0
-18083 18082 0
-18083 -273 65 0
-18083 273 -65 0
18083 -18082 273 65 0
18083 -18082 -273 -65 0
-18083 -274 298 0
-18084 18083 0
-18084 -274 298 0
-18084 274 -298 0
18084 -18083 274 298 0
18084 -18083 -274 -298 0
-18084 -275 209 0
-18085 18084 0
-18085 -275 209 0
-18085 275 -209 0
18085 -18084 275 209 0
18085 -18084 -275 -209 0
-18085 -276 44 0
-18086 18085 0
-18086 -276 44 0
-18086 276 -44 0
18086 -18085 276 44 0
18086 -18085 -276 -44 0
-18086 -278 188 0
-18087 18086 0
-18087 -278 188 0
-18087 278 -188 0
18087 -18086 278 188 0
18087 -18086 -278 -188 0
-18087 -279 133 0
-18088 18087 0
-18088 -279 133 0
-18088 279 -133 0
18088 -18087 279 133 0
18088 -18087 -279 -133 0
-18088 -280 366 0
-18089 18088 0
-18089 -280 366 0
-18089 280 -366 0
18089 -18088 280 366 0
18089 -18088 -280 -366 0
-18089 -281 31 0
-18090 18089 0
-18090 -281 31 0
-18090 281 -31 0
18090 -18089 281 31 0
18090 -18089 -281 -31 0
-18090 -282 264 0
-18091 18090 0
-18091 -282 264 0
-18091 282 -264 0
18091 -18090 282 264 0
18091 -18090 -282 -264 0
-18091 -283 175 0
-18092 18091 0
-18092 -283 175 0
-18092 283 -175 0
18092 -18091 283 175 0
18092 -18091 -283 -175 0
-18092 -284 120 0
-18093 18092 0
-18093 -284 120 0
-18093 284 -120 0
18093 -18092 284 120 0
18093 -18092 -284 -120 0
-18093 -285 353 0
-18094 18093 0
-18094 -285 353 0
-18094 285 -353 0
18094 -18093 285 353 0
18094 -18093 -285 -353 0
-18094 -286 86 0
-18095 18094 0
-18095 -286 86 0
-18095 286 -86 0
18095 -18094 286 86 0
18095 -18094 -286 -86 0
-18095 -287 319 0
-18096 18095 0
-18096 -287 319 0
-18096 287 -319 0
18096 -18095 287 319 0
18096 -18095 -287 -319 0
-18096 -288 230 0
-18097 18096 0
-18097 -288 230 0
-18097 288 -230 0
18097 -18096 288 230 0
18097 -18096 -288 -230 0
-18097 -289 7 0
-18098 18097 0
-18098 -289 7 0
-18098 289 -7 0
18098 -18097 289 7 0
18098 -18097 -289 -7 0
-18098 -290 240 0
-18099 18098 0
-18099 -290 240 0
-18099 290 -240 0
18099 -18098 290 240 0
18099 -18098 -290 -240 0
-18099 -291 151 0
-18100 18099 0
-18100 -291 151 0
-18100 291 -151 0
18100 -18099 291 151 0
18100 -18099 -291 -151 0
-18100 -292 96 0
-18101 18100 0
-18101 -292 96 0
-18101 292 -96 0
18101 -18100 292 96 0
18101 -18100 -292 -96 0
-18101 -293 329 0
-18102 18101 0
-18102 -293 329 0
-18102 293 -329 0
18102 -18101 293 329 0
18102 -18101 -293 -329 0
-18102 -294 62 0
-18103 18102 0
-18103 -294 62 0
-18103 294 -62 0
18103 -18102 294 62 0
18103 -18102 -294 -62 0
-18103 -296 206 0
-18104 18103 0
-18104 -296 206 0
-18104 296 -206 0
18104 -18103 296 206 0
18104 -18103 -296 -206 0
-18104 -297 41 0
-18105 18104 0
-18105 -297 41 0
-18105 297 -41 0
18105 -18104 297 41 0
18105 -18104 -297 -41 0
-18105 -298 274 0
-18106 18105 0
-18106 -298 274 0
-18106 298 -274 0
18106 -18105 298 274 0
18106 -18105 -298 -274 0
-18106 -299 185 0
-18107 18106 0
-18107 -299 185 0
-18107 299 -185 0
18107 -18106 299 185 0
18107 -18106 -299 -185 0
-18107 -300 130 0
-18108 18107 0
-18108 -300 130 0
-18108 300 -130 0
18108 -18107 300 130 0
18108 -18107 -300 -130 0
-18108 -301 363 0
-18109 18108 0
-18109 -301 363 0
-18109 301 -363 0
18109 -18108 301 363 0
18109 -18108 -301 -363 0
-18109 -302 28 0
-18110 18109 0
-18110 -302 28 0
-18110 302 -28 0
18110 -18109 302 28 0
18110 -18109 -302 -28 0
-18110 -303 261 0
-18111 18110 0
-18111 -303 261 0
-18111 303 -261 0
18111 -18110 303 261 0
18111 -18110 -303 -261 0
-18111 -304 172 0
-18112 18111 0
-18112 -304 172 0
-18112 304 -172 0
18112 -18111 304 172 0
18112 -18111 -304 -172 0
-18112 -305 117 0
-18113 18112 0
-18113 -305 117 0
-18113 305 -117 0
18113 -18112 305 117 0
18113 -18112 -305 -117 0
-18113 -306 350 0
-18114 18113 0
-18114 -306 350 0
-18114 306 -350 0
18114 -18113 306 350 0
18114 -18113 -306 -350 0
-18114 -307 83 0
-18115 18114 0
-18115 -307 83 0
-18115 307 -83 0
18115 -18114 307 83 0
18115 -18114 -307 -83 0
-18115 -308 316 0
-18116 18115 0
-18116 -308 316 0
-18116 308 -316 0
18116 -18115 308 316 0
18116 -18115 -308 -316 0
-18116 -309 227 0
-18117 18116 0
-18117 -309 227 0
-18117 309 -227 0
18117 -18116 309 227 0
18117 -18116 -309 -227 0
-18117 -310 20 0
-18118 18117 0
-18118 -310 20 0
-18118 310 -20 0
18118 -18117 310 20 0
18118 -18117 -310 -20 0
-18118 -311 253 0
-18119 18118 0
-18119 -311 253 0
-18119 311 -253 0
18119 -18118 311 253 0
18119 -18118 -311 -253 0
-18119 -312 164 0
-18120 18119 0
-18120 -312 164 0
-18120 312 -164 0
18120 -18119 312 164 0
18120 -18119 -312 -164 0
-18120 -313 109 0
-18121 18120 0
-18121 -313 109 0
-18121 313 -109 0
18121 -18120 313 109 0
18121 -18120 -313 -109 0
-18121 -314 342 0
-18122 18121 0
-18122 -314 342 0
-18122 314 -342 0
18122 -18121 314 342 0
18122 -18121 -314 -342 0
-18122 -315 75 0
-18123 18122 0
-18123 -315 75 0
-18123 315 -75 0
18123 -18122 315 75 0
18123 -18122 -315 -75 0
-18123 -316 308 0
-18124 18123 0
-18124 -316 308 0
-18124 316 -308 0
18124 -18123 316 308 0
18124 -18123 -316 -308 0
-18124 -317 219 0
-18125 18124 0
-18125 -317 219 0
-18125 317 -219 0
18125 -18124 317 219 0
18125 -18124 -317 -219 0
-18125 -318 54 0
-18126 18125 0
-18126 -318 54 0
-18126 318 -54 0
18126 -18125 318 54 0
18126 -18125 -318 -54 0
-18126 -319 287 0
-18127 18126 0
-18127 -319 287 0
-18127 319 -287 0
18127 -18126 319 287 0
18127 -18126 -319 -287 0
-18127 -320 198 0
-18128 18127 0
-18128 -320 198 0
-18128 320 -198 0
18128 -18127 320 198 0
18128 -18127 -320 -198 0
-18128 -321 143 0
-18129 18128 0
-18129 -321 143 0
-18129 321 -143 0
18129 -18128 321 143 0
18129 -18128 -321 -143 0
-18129 -322 376 0
-18130 18129 0
-18130 -322 376 0
-18130 322 -376 0
18130 -18129 322 376 0
18130 -18129 -322 -376 0
-18130 -323 5 0
-18131 18130 0
-18131 -323 5 0
-18131 323 -5 0
18131 -18130 323 5 0
18131 -18130 -323 -5 0
-18131 -324 238 0
-18132 18131 0
-18132 -324 238 0
-18132 324 -238 0
18132 -18131 324 238 0
18132 -18131 -324 -238 0
-18132 -325 149 0
-18133 18132 0
-18133 -325 149 0
-18133 325 -149 0
18133 -18132 325 149 0
18133 -18132 -325 -149 0
-18133 -326 94 0
-18134 18133 0
-18134 -326 94 0
-18134 326 -94 0
18134 -18133 326 94 0
18134 -18133 -326 -94 0
-18134 -328 60 0
-18135 18134 0
-18135 -328 60 0
-18135 328 -60 0
18135 -18134 328 60 0
18135 -18134 -328 -60 0
-18135 -329 293 0
-18136 18135 0
-18136 -329 293 0
-18136 329 -293 0
18136 -18135 329 293 0
18136 -18135 -329 -293 0
-18136 -330 204 0
-18137 18136 0
-18137 -330 204 0
-18137 330 -204 0
18137 -18136 330 204 0
18137 -18136 -330 -204 0
-18137 -331 39 0
-18138 18137 0
-18138 -331 39 0
-18138 331 -39 0
18138 -18137 331 39 0
18138 -18137 -331 -39 0
-18138 -332 272 0
-18139 18138 0
-18139 -332 272 0
-18139 332 -272 0
18139 -18138 332 272 0
18139 -18138 -332 -272 0
-18139 -333 183 0
-18140 18139 0
-18140 -333 183 0
-18140 333 -183 0
18140 -18139 333 183 0
18140 -18139 -333 -183 0
-18140 -334 128 0
-18141 18140 0
-18141 -334 128 0
-18141 334 -128 0
18141 -18140 334 128 0
18141 -18140 -334 -128 0
-18141 -335 361 0
-18142 18141 0
-18142 -335 361 0
-18142 335 -361 0
18142 -18141 335 361 0
18142 -18141 -335 -361 0
-18142 -336 26 0
-18143 18142 0
-18143 -336 26 0
-18143 336 -26 0
18143 -18142 336 26 0
18143 -18142 -336 -26 0
-18143 -337 259 0
-18144 18143 0
-18144 -337 259 0
-18144 337 -259 0
18144 -18143 337 259 0
18144 -18143 -337 -259 0
-18144 -338 170 0
-18145 18144 0
-18145 -338 170 0
-18145 338 -170 0
18145 -18144 338 170 0
18145 -18144 -338 -170 0
-18145 -339 115 0
-18146 18145 0
-18146 -339 115 0
-18146 339 -115 0
18146 -18145 339 115 0
18146 -18145 -339 -115 0
-18146 -340 348 0
-18147 18146 0
-18147 -340 348 0
-18147 340 -348 0
18147 -18146 340 348 0
18147 -18146 -340 -348 0
-18147 -341 81 0
-18148 18147 0
-18148 -341 81 0
-18148 341 -81 0
18148 -18147 341 81 0
18148 -18147 -341 -81 0
-18148 -342 314 0
-18149 18148 0
-18149 -342 314 0
-18149 342 -314 0
18149 -18148 342 314 0
18149 -18148 -342 -314 0
-18149 -343 225 0
-18150 18149 0
-18150 -343 225 0
-18150 343 -225 0
18150 -18149 343 225 0
18150 -18149 -343 -225 0
-18150 -344 18 0
-18151 18150 0
-18151 -344 18 0
-18151 344 -18 0
18151 -18150 344 18 0
18151 -18150 -344 -18 0
-18151 -345 251 0
-18152 18151 0
-18152 -345 251 0
-18152 345 -251 0
18152 -18151 345 251 0
18152 -18151 -345 -251 0
-18152 -346 162 0
-18153 18152 0
-18153 -346 162 0
-18153 346 -162 0
18153 -18152 346 162 0
18153 -18152 -346 -162 0
-18153 -347 107 0
-18154 18153 0
-18154 -347 107 0
-18154 347 -107 0
18154 -18153 347 107 0
18154 -18153 -347 -107 0
-18154 -348 340 0
-18155 18154 0
-18155 -348 340 0
-18155 348 -340 0
18155 -18154 348 340 0
18155 -18154 -348 -340 0
-18155 -349 73 0
-18156 18155 0
-18156 -349 73 0
-18156 349 -73 0
18156 -18155 349 73 0
18156 -18155 -349 -73 0
-18156 -350 306 0
-18157 18156 0
-18157 -350 306 0
-18157 350 -306 0
18157 -18156 350 306 0
18157 -18156 -350 -306 0
-18157 -351 217 0
-18158 18157 0
-18158 -351 217 0
-18158 351 -217 0
18158 -18157 351 217 0
18158 -18157 -351 -217 0
-18158 -352 52 0
-18159 18158 0
-18159 -352 52 0
-18159 352 -52 0
18159 -18158 352 52 0
18159 -18158 -352 -52 0
-18159 -353 285 0
-18160 18159 0
-18160 -353 285 0
-18160 353 -285 0
18160 -18159 353 285 0
18160 -18159 -353 -285 0
-18160 -354 196 0
-18161 18160 0
-18161 -354 196 0
-18161 354 -196 0
18161 -18160 354 196 0
18161 -18160 -354 -196 0
-18161 -355 141 0
-18162 18161 0
-18162 -355 141 0
-18162 355 -141 0
18162 -18161 355 141 0
18162 -18161 -355 -141 0
-18162 -356 374 0
-18163 18162 0
-18163 -356 374 0
-18163 356 -374 0
18163 -18162 356 374 0
18163 -18162 -356 -374 0
-18163 -357 13 0
-18164 18163 0
-18164 -357 13 0
-18164 357 -13 0
18164 -18163 357 13 0
18164 -18163 -357 -13 0
-18164 -358 246 0
-18165 18164 0
-18165 -358 246 0
-18165 358 -246 0
18165 -18164 358 246 0
18165 -18164 -358 -246 0
-18165 -359 157 0
-18166 18165 0
-18166 -359 157 0
-18166 359 -157 0
18166 -18165 359 157 0
18166 -18165 -359 -157 0
-18166 -360 102 0
-18167 18166 0
-18167 -360 102 0
-18167 360 -102 0
18167 -18166 360 102 0
18167 -18166 -360 -102 0
-18167 -361 335 0
-18168 18167 0
-18168 -361 335 0
-18168 361 -335 0
18168 -18167 361 335 0
18168 -18167 -361 -335 0
-18168 -362 68 0
-18169 18168 0
-18169 -362 68 0
-18169 362 -68 0
18169 -18168 362 68 0
18169 -18168 -362 -68 0
-18169 -363 301 0
-18170 18169 0
-18170 -363 301 0
-18170 363 -301 0
18170 -18169 363 301 0
18170 -18169 -363 -301 0
-18170 -364 212 0
-18171 18170 0
-18171 -364 212 0
-18171 364 -212 0
18171 -18170 364 212 0
18171 -18170 -364 -212 0
-18171 -365 47 0
-18172 18171 0
-18172 -365 47 0
-18172 365 -47 0
18172 -18171 365 47 0
18172 -18171 -365 -47 0
-18172 -366 280 0
-18173 18172 0
-18173 -366 280 0
-18173 366 -280 0
18173 -18172 366 280 0
18173 -18172 -366 -280 0
-18173 -367 191 0
-18174 18173 0
-18174 -367 191 0
-18174 367 -191 0
18174 -18173 367 191 0
18174 -18173 -367 -191 0
-18174 -368 136 0
-18175 18174 0
-18175 -368 136 0
-18175 368 -136 0
18175 -18174 368 136 0
18175 -18174 -368 -136 0
-18175 -370 34 0
-18176 18175 0
-18176 -370 34 0
-18176 370 -34 0
18176 -18175 370 34 0
18176 -18175 -370 -34 0
-18176 -371 267 0
-18177 18176 0
-18177 -371 267 0
-18177 371 -267 0
18177 -18176 371 267 0
18177 -18176 -371 -267 0
-18177 -372 178 0
-18178 18177 0
-18178 -372 178 0
-18178 372 -178 0
18178 -18177 372 178 0
18178 -18177 -372 -178 0
-18178 -373 123 0
-18179 18178 0
-18179 -373 123 0
-18179 373 -123 0
18179 -18178 373 123 0
18179 -18178 -373 -123 0
-18179 -374 356 0
-18180 18179 0
-18180 -374 356 0
-18180 374 -356 0
18180 -18179 374 356 0
18180 -18179 -374 -356 0
-18180 -375 89 0
-18181 18180 0
-18181 -375 89 0
-18181 375 -89 0
18181 -18180 375 89 0
18181 -18180 -375 -89 0
-18181 -376 322 0
-18182 18181 0
-18182 -376 322 0
-18182 376 -322 0
18182 -18181 376 322 0
18182 -18181 -376 -322 0
-18182 -377 233 0
-18183 18182 0
-18183 -377 233 0
-18183 377 -233 0
18183 -18182 377 233 0
18183 -18182 -377 -233 0
